6
torsion_angle=0.0 deg  rigid_scan  H2-C0=N1-H3
C      -0.00000000      0.00000000     -0.04151713
N       0.00000000      0.00000000      1.37192420
H       0.90842000     -0.00000106     -0.64309901
H       0.90797708      0.00000106      1.83651216
H      -0.90797708     -0.00000106      1.83651216
H      -0.90842000      0.00000106     -0.64309901
6
torsion_angle=1.0 deg  rigid_scan  H2-C0=N1-H3
C      -0.00000000      0.00000000     -0.04151713
N       0.00000000      0.00000000      1.37192420
H       0.90842000     -0.00000106     -0.64309901
H       0.90783877      0.01584744      1.83651216
H      -0.90783877     -0.01584744      1.83651216
H      -0.90842000      0.00000106     -0.64309901
6
torsion_angle=2.0 deg  rigid_scan  H2-C0=N1-H3
C      -0.00000000      0.00000000     -0.04151713
N       0.00000000      0.00000000      1.37192420
H       0.90842000     -0.00000106     -0.64309901
H       0.90742393      0.03168900      1.83651216
H      -0.90742393     -0.03168900      1.83651216
H      -0.90842000      0.00000106     -0.64309901
6
torsion_angle=3.0 deg  rigid_scan  H2-C0=N1-H3
C      -0.00000000      0.00000000     -0.04151713
N       0.00000000      0.00000000      1.37192420
H       0.90842000     -0.00000106     -0.64309901
H       0.90673267      0.04752091      1.83651216
H      -0.90673267     -0.04752091      1.83651216
H      -0.90842000      0.00000106     -0.64309901
6
torsion_angle=4.0 deg  rigid_scan  H2-C0=N1-H3
C      -0.00000000      0.00000000     -0.04151713
N       0.00000000      0.00000000      1.37192420
H       0.90842000     -0.00000106     -0.64309901
H       0.90576522      0.06333834      1.83651216
H      -0.90576522     -0.06333834      1.83651216
H      -0.90842000      0.00000106     -0.64309901
6
torsion_angle=5.0 deg  rigid_scan  H2-C0=N1-H3
C      -0.00000000      0.00000000     -0.04151713
N       0.00000000      0.00000000      1.37192420
H       0.90842000     -0.00000106     -0.64309901
H       0.90452186      0.07913647      1.83651216
H      -0.90452186     -0.07913647      1.83651216
H      -0.90842000      0.00000106     -0.64309901
6
torsion_angle=6.0 deg  rigid_scan  H2-C0=N1-H3
C      -0.00000000      0.00000000     -0.04151713
N       0.00000000      0.00000000      1.37192420
H       0.90842000     -0.00000106     -0.64309901
H       0.90300298      0.09491050      1.83651216
H      -0.90300298     -0.09491050      1.83651216
H      -0.90842000      0.00000106     -0.64309901
6
torsion_angle=7.0 deg  rigid_scan  H2-C0=N1-H3
C      -0.00000000      0.00000000     -0.04151713
N       0.00000000      0.00000000      1.37192420
H       0.90842000     -0.00000106     -0.64309901
H       0.90120903      0.11065562      1.83651216
H      -0.90120903     -0.11065562      1.83651216
H      -0.90842000      0.00000106     -0.64309901
6
torsion_angle=8.0 deg  rigid_scan  H2-C0=N1-H3
C      -0.00000000      0.00000000     -0.04151713
N       0.00000000      0.00000000      1.37192420
H       0.90842000     -0.00000106     -0.64309901
H       0.89914056      0.12636703      1.83651216
H      -0.89914056     -0.12636703      1.83651216
H      -0.90842000      0.00000106     -0.64309901
6
torsion_angle=9.0 deg  rigid_scan  H2-C0=N1-H3
C      -0.00000000      0.00000000     -0.04151713
N       0.00000000      0.00000000      1.37192420
H       0.90842000     -0.00000106     -0.64309901
H       0.89679821      0.14203995      1.83651216
H      -0.89679821     -0.14203995      1.83651216
H      -0.90842000      0.00000106     -0.64309901
6
torsion_angle=10.0 deg  rigid_scan  H2-C0=N1-H3
C      -0.00000000      0.00000000     -0.04151713
N       0.00000000      0.00000000      1.37192420
H       0.90842000     -0.00000106     -0.64309901
H       0.89418268      0.15766961      1.83651216
H      -0.89418268     -0.15766961      1.83651216
H      -0.90842000      0.00000106     -0.64309901
6
torsion_angle=11.0 deg  rigid_scan  H2-C0=N1-H3
C      -0.00000000      0.00000000     -0.04151713
N       0.00000000      0.00000000      1.37192420
H       0.90842000     -0.00000106     -0.64309901
H       0.89129478      0.17325123      1.83651216
H      -0.89129478     -0.17325123      1.83651216
H      -0.90842000      0.00000106     -0.64309901
6
torsion_angle=12.0 deg  rigid_scan  H2-C0=N1-H3
C      -0.00000000      0.00000000     -0.04151713
N       0.00000000      0.00000000      1.37192420
H       0.90842000     -0.00000106     -0.64309901
H       0.88813538      0.18878009      1.83651216
H      -0.88813538     -0.18878009      1.83651216
H      -0.90842000      0.00000106     -0.64309901
6
torsion_angle=13.0 deg  rigid_scan  H2-C0=N1-H3
C      -0.00000000      0.00000000     -0.04151713
N       0.00000000      0.00000000      1.37192420
H       0.90842000     -0.00000106     -0.64309901
H       0.88470545      0.20425143      1.83651216
H      -0.88470545     -0.20425143      1.83651216
H      -0.90842000      0.00000106     -0.64309901
6
torsion_angle=14.0 deg  rigid_scan  H2-C0=N1-H3
C      -0.00000000      0.00000000     -0.04151713
N       0.00000000      0.00000000      1.37192420
H       0.90842000     -0.00000106     -0.64309901
H       0.88100602      0.21966056      1.83651216
H      -0.88100602     -0.21966056      1.83651216
H      -0.90842000      0.00000106     -0.64309901
6
torsion_angle=15.0 deg  rigid_scan  H2-C0=N1-H3
C      -0.00000000      0.00000000     -0.04151713
N       0.00000000      0.00000000      1.37192420
H       0.90842000     -0.00000106     -0.64309901
H       0.87703824      0.23500278      1.83651216
H      -0.87703824     -0.23500278      1.83651216
H      -0.90842000      0.00000106     -0.64309901
6
torsion_angle=16.0 deg  rigid_scan  H2-C0=N1-H3
C      -0.00000000      0.00000000     -0.04151713
N       0.00000000      0.00000000      1.37192420
H       0.90842000     -0.00000106     -0.64309901
H       0.87280330      0.25027342      1.83651216
H      -0.87280330     -0.25027342      1.83651216
H      -0.90842000      0.00000106     -0.64309901
6
torsion_angle=17.0 deg  rigid_scan  H2-C0=N1-H3
C      -0.00000000      0.00000000     -0.04151713
N       0.00000000      0.00000000      1.37192420
H       0.90842000     -0.00000106     -0.64309901
H       0.86830249      0.26546782      1.83651216
H      -0.86830249     -0.26546782      1.83651216
H      -0.90842000      0.00000106     -0.64309901
6
torsion_angle=18.0 deg  rigid_scan  H2-C0=N1-H3
C      -0.00000000      0.00000000     -0.04151713
N       0.00000000      0.00000000      1.37192420
H       0.90842000     -0.00000106     -0.64309901
H       0.86353719      0.28058136      1.83651216
H      -0.86353719     -0.28058136      1.83651216
H      -0.90842000      0.00000106     -0.64309901
6
torsion_angle=19.0 deg  rigid_scan  H2-C0=N1-H3
C      -0.00000000      0.00000000     -0.04151713
N       0.00000000      0.00000000      1.37192420
H       0.90842000     -0.00000106     -0.64309901
H       0.85850885      0.29560942      1.83651216
H      -0.85850885     -0.29560942      1.83651216
H      -0.90842000      0.00000106     -0.64309901
6
torsion_angle=20.0 deg  rigid_scan  H2-C0=N1-H3
C      -0.00000000      0.00000000     -0.04151713
N       0.00000000      0.00000000      1.37192420
H       0.90842000     -0.00000106     -0.64309901
H       0.85321900      0.31054745      1.83651216
H      -0.85321900     -0.31054745      1.83651216
H      -0.90842000      0.00000106     -0.64309901
6
torsion_angle=21.0 deg  rigid_scan  H2-C0=N1-H3
C      -0.00000000      0.00000000     -0.04151713
N       0.00000000      0.00000000      1.37192420
H       0.90842000     -0.00000106     -0.64309901
H       0.84766925      0.32539087      1.83651216
H      -0.84766925     -0.32539087      1.83651216
H      -0.90842000      0.00000106     -0.64309901
6
torsion_angle=22.0 deg  rigid_scan  H2-C0=N1-H3
C      -0.00000000      0.00000000     -0.04151713
N       0.00000000      0.00000000      1.37192420
H       0.90842000     -0.00000106     -0.64309901
H       0.84186129      0.34013518      1.83651216
H      -0.84186129     -0.34013518      1.83651216
H      -0.90842000      0.00000106     -0.64309901
6
torsion_angle=23.0 deg  rigid_scan  H2-C0=N1-H3
C      -0.00000000      0.00000000     -0.04151713
N       0.00000000      0.00000000      1.37192420
H       0.90842000     -0.00000106     -0.64309901
H       0.83579690      0.35477588      1.83651216
H      -0.83579690     -0.35477588      1.83651216
H      -0.90842000      0.00000106     -0.64309901
6
torsion_angle=24.0 deg  rigid_scan  H2-C0=N1-H3
C      -0.00000000      0.00000000     -0.04151713
N       0.00000000      0.00000000      1.37192420
H       0.90842000     -0.00000106     -0.64309901
H       0.82947791      0.36930852      1.83651216
H      -0.82947791     -0.36930852      1.83651216
H      -0.90842000      0.00000106     -0.64309901
6
torsion_angle=25.0 deg  rigid_scan  H2-C0=N1-H3
C      -0.00000000      0.00000000     -0.04151713
N       0.00000000      0.00000000      1.37192420
H       0.90842000     -0.00000106     -0.64309901
H       0.82290625      0.38372865      1.83651216
H      -0.82290625     -0.38372865      1.83651216
H      -0.90842000      0.00000106     -0.64309901
6
torsion_angle=26.0 deg  rigid_scan  H2-C0=N1-H3
C      -0.00000000      0.00000000     -0.04151713
N       0.00000000      0.00000000      1.37192420
H       0.90842000     -0.00000106     -0.64309901
H       0.81608393      0.39803191      1.83651216
H      -0.81608393     -0.39803191      1.83651216
H      -0.90842000      0.00000106     -0.64309901
6
torsion_angle=27.0 deg  rigid_scan  H2-C0=N1-H3
C      -0.00000000      0.00000000     -0.04151713
N       0.00000000      0.00000000      1.37192420
H       0.90842000     -0.00000106     -0.64309901
H       0.80901302      0.41221391      1.83651216
H      -0.80901302     -0.41221391      1.83651216
H      -0.90842000      0.00000106     -0.64309901
6
torsion_angle=28.0 deg  rigid_scan  H2-C0=N1-H3
C      -0.00000000      0.00000000     -0.04151713
N       0.00000000      0.00000000      1.37192420
H       0.90842000     -0.00000106     -0.64309901
H       0.80169568      0.42627035      1.83651216
H      -0.80169568     -0.42627035      1.83651216
H      -0.90842000      0.00000106     -0.64309901
6
torsion_angle=29.0 deg  rigid_scan  H2-C0=N1-H3
C      -0.00000000      0.00000000     -0.04151713
N       0.00000000      0.00000000      1.37192420
H       0.90842000     -0.00000106     -0.64309901
H       0.79413414      0.44019695      1.83651216
H      -0.79413414     -0.44019695      1.83651216
H      -0.90842000      0.00000106     -0.64309901
6
torsion_angle=30.0 deg  rigid_scan  H2-C0=N1-H3
C      -0.00000000      0.00000000     -0.04151713
N       0.00000000      0.00000000      1.37192420
H       0.90842000     -0.00000106     -0.64309901
H       0.78633069      0.45398946      1.83651216
H      -0.78633069     -0.45398946      1.83651216
H      -0.90842000      0.00000106     -0.64309901
6
torsion_angle=31.0 deg  rigid_scan  H2-C0=N1-H3
C      -0.00000000      0.00000000     -0.04151713
N       0.00000000      0.00000000      1.37192420
H       0.90842000     -0.00000106     -0.64309901
H       0.77828772      0.46764367      1.83651216
H      -0.77828772     -0.46764367      1.83651216
H      -0.90842000      0.00000106     -0.64309901
6
torsion_angle=32.0 deg  rigid_scan  H2-C0=N1-H3
C      -0.00000000      0.00000000     -0.04151713
N       0.00000000      0.00000000      1.37192420
H       0.90842000     -0.00000106     -0.64309901
H       0.77000767      0.48115544      1.83651216
H      -0.77000767     -0.48115544      1.83651216
H      -0.90842000      0.00000106     -0.64309901
6
torsion_angle=33.0 deg  rigid_scan  H2-C0=N1-H3
C      -0.00000000      0.00000000     -0.04151713
N       0.00000000      0.00000000      1.37192420
H       0.90842000     -0.00000106     -0.64309901
H       0.76149308      0.49452065      1.83651216
H      -0.76149308     -0.49452065      1.83651216
H      -0.90842000      0.00000106     -0.64309901
6
torsion_angle=34.0 deg  rigid_scan  H2-C0=N1-H3
C      -0.00000000      0.00000000     -0.04151713
N       0.00000000      0.00000000      1.37192420
H       0.90842000     -0.00000106     -0.64309901
H       0.75274652      0.50773522      1.83651216
H      -0.75274652     -0.50773522      1.83651216
H      -0.90842000      0.00000106     -0.64309901
6
torsion_angle=35.0 deg  rigid_scan  H2-C0=N1-H3
C      -0.00000000      0.00000000     -0.04151713
N       0.00000000      0.00000000      1.37192420
H       0.90842000     -0.00000106     -0.64309901
H       0.74377067      0.52079513      1.83651216
H      -0.74377067     -0.52079513      1.83651216
H      -0.90842000      0.00000106     -0.64309901
6
torsion_angle=36.0 deg  rigid_scan  H2-C0=N1-H3
C      -0.00000000      0.00000000     -0.04151713
N       0.00000000      0.00000000      1.37192420
H       0.90842000     -0.00000106     -0.64309901
H       0.73456827      0.53369639      1.83651216
H      -0.73456827     -0.53369639      1.83651216
H      -0.90842000      0.00000106     -0.64309901
6
torsion_angle=37.0 deg  rigid_scan  H2-C0=N1-H3
C      -0.00000000      0.00000000     -0.04151713
N       0.00000000      0.00000000      1.37192420
H       0.90842000     -0.00000106     -0.64309901
H       0.72514210      0.54643509      1.83651216
H      -0.72514210     -0.54643509      1.83651216
H      -0.90842000      0.00000106     -0.64309901
6
torsion_angle=38.0 deg  rigid_scan  H2-C0=N1-H3
C      -0.00000000      0.00000000     -0.04151713
N       0.00000000      0.00000000      1.37192420
H       0.90842000     -0.00000106     -0.64309901
H       0.71549505      0.55900734      1.83651216
H      -0.71549505     -0.55900734      1.83651216
H      -0.90842000      0.00000106     -0.64309901
6
torsion_angle=39.0 deg  rigid_scan  H2-C0=N1-H3
C      -0.00000000      0.00000000     -0.04151713
N       0.00000000      0.00000000      1.37192420
H       0.90842000     -0.00000106     -0.64309901
H       0.70563006      0.57140931      1.83651216
H      -0.70563006     -0.57140931      1.83651216
H      -0.90842000      0.00000106     -0.64309901
6
torsion_angle=40.0 deg  rigid_scan  H2-C0=N1-H3
C      -0.00000000      0.00000000     -0.04151713
N       0.00000000      0.00000000      1.37192420
H       0.90842000     -0.00000106     -0.64309901
H       0.69555012      0.58363723      1.83651216
H      -0.69555012     -0.58363723      1.83651216
H      -0.90842000      0.00000106     -0.64309901
6
torsion_angle=41.0 deg  rigid_scan  H2-C0=N1-H3
C      -0.00000000      0.00000000     -0.04151713
N       0.00000000      0.00000000      1.37192420
H       0.90842000     -0.00000106     -0.64309901
H       0.68525831      0.59568736      1.83651216
H      -0.68525831     -0.59568736      1.83651216
H      -0.90842000      0.00000106     -0.64309901
6
torsion_angle=42.0 deg  rigid_scan  H2-C0=N1-H3
C      -0.00000000      0.00000000     -0.04151713
N       0.00000000      0.00000000      1.37192420
H       0.90842000     -0.00000106     -0.64309901
H       0.67475776      0.60755604      1.83651216
H      -0.67475776     -0.60755604      1.83651216
H      -0.90842000      0.00000106     -0.64309901
6
torsion_angle=43.0 deg  rigid_scan  H2-C0=N1-H3
C      -0.00000000      0.00000000     -0.04151713
N       0.00000000      0.00000000      1.37192420
H       0.90842000     -0.00000106     -0.64309901
H       0.66405168      0.61923965      1.83651216
H      -0.66405168     -0.61923965      1.83651216
H      -0.90842000      0.00000106     -0.64309901
6
torsion_angle=44.0 deg  rigid_scan  H2-C0=N1-H3
C      -0.00000000      0.00000000     -0.04151713
N       0.00000000      0.00000000      1.37192420
H       0.90842000     -0.00000106     -0.64309901
H       0.65314332      0.63073464      1.83651216
H      -0.65314332     -0.63073464      1.83651216
H      -0.90842000      0.00000106     -0.64309901
6
torsion_angle=45.0 deg  rigid_scan  H2-C0=N1-H3
C      -0.00000000      0.00000000     -0.04151713
N       0.00000000      0.00000000      1.37192420
H       0.90842000     -0.00000106     -0.64309901
H       0.64203600      0.64203750      1.83651216
H      -0.64203600     -0.64203750      1.83651216
H      -0.90842000      0.00000106     -0.64309901
6
torsion_angle=46.0 deg  rigid_scan  H2-C0=N1-H3
C      -0.00000000      0.00000000     -0.04151713
N       0.00000000      0.00000000      1.37192420
H       0.90842000     -0.00000106     -0.64309901
H       0.63073312      0.65314479      1.83651216
H      -0.63073312     -0.65314479      1.83651216
H      -0.90842000      0.00000106     -0.64309901
6
torsion_angle=47.0 deg  rigid_scan  H2-C0=N1-H3
C      -0.00000000      0.00000000     -0.04151713
N       0.00000000      0.00000000      1.37192420
H       0.90842000     -0.00000106     -0.64309901
H       0.61923811      0.66405312      1.83651216
H      -0.61923811     -0.66405312      1.83651216
H      -0.90842000      0.00000106     -0.64309901
6
torsion_angle=48.0 deg  rigid_scan  H2-C0=N1-H3
C      -0.00000000      0.00000000     -0.04151713
N       0.00000000      0.00000000      1.37192420
H       0.90842000     -0.00000106     -0.64309901
H       0.60755447      0.67475918      1.83651216
H      -0.60755447     -0.67475918      1.83651216
H      -0.90842000      0.00000106     -0.64309901
6
torsion_angle=49.0 deg  rigid_scan  H2-C0=N1-H3
C      -0.00000000      0.00000000     -0.04151713
N       0.00000000      0.00000000      1.37192420
H       0.90842000     -0.00000106     -0.64309901
H       0.59568576      0.68525970      1.83651216
H      -0.59568576     -0.68525970      1.83651216
H      -0.90842000      0.00000106     -0.64309901
6
torsion_angle=50.0 deg  rigid_scan  H2-C0=N1-H3
C      -0.00000000      0.00000000     -0.04151713
N       0.00000000      0.00000000      1.37192420
H       0.90842000     -0.00000106     -0.64309901
H       0.58363561      0.69555148      1.83651216
H      -0.58363561     -0.69555148      1.83651216
H      -0.90842000      0.00000106     -0.64309901
6
torsion_angle=51.0 deg  rigid_scan  H2-C0=N1-H3
C      -0.00000000      0.00000000     -0.04151713
N       0.00000000      0.00000000      1.37192420
H       0.90842000     -0.00000106     -0.64309901
H       0.57140767      0.70563139      1.83651216
H      -0.57140767     -0.70563139      1.83651216
H      -0.90842000      0.00000106     -0.64309901
6
torsion_angle=52.0 deg  rigid_scan  H2-C0=N1-H3
C      -0.00000000      0.00000000     -0.04151713
N       0.00000000      0.00000000      1.37192420
H       0.90842000     -0.00000106     -0.64309901
H       0.55900568      0.71549636      1.83651216
H      -0.55900568     -0.71549636      1.83651216
H      -0.90842000      0.00000106     -0.64309901
6
torsion_angle=53.0 deg  rigid_scan  H2-C0=N1-H3
C      -0.00000000      0.00000000     -0.04151713
N       0.00000000      0.00000000      1.37192420
H       0.90842000     -0.00000106     -0.64309901
H       0.54643340      0.72514338      1.83651216
H      -0.54643340     -0.72514338      1.83651216
H      -0.90842000      0.00000106     -0.64309901
6
torsion_angle=54.0 deg  rigid_scan  H2-C0=N1-H3
C      -0.00000000      0.00000000     -0.04151713
N       0.00000000      0.00000000      1.37192420
H       0.90842000     -0.00000106     -0.64309901
H       0.53369468      0.73456951      1.83651216
H      -0.53369468     -0.73456951      1.83651216
H      -0.90842000      0.00000106     -0.64309901
6
torsion_angle=55.0 deg  rigid_scan  H2-C0=N1-H3
C      -0.00000000      0.00000000     -0.04151713
N       0.00000000      0.00000000      1.37192420
H       0.90842000     -0.00000106     -0.64309901
H       0.52079339      0.74377189      1.83651216
H      -0.52079339     -0.74377189      1.83651216
H      -0.90842000      0.00000106     -0.64309901
6
torsion_angle=56.0 deg  rigid_scan  H2-C0=N1-H3
C      -0.00000000      0.00000000     -0.04151713
N       0.00000000      0.00000000      1.37192420
H       0.90842000     -0.00000106     -0.64309901
H       0.50773346      0.75274771      1.83651216
H      -0.50773346     -0.75274771      1.83651216
H      -0.90842000      0.00000106     -0.64309901
6
torsion_angle=57.0 deg  rigid_scan  H2-C0=N1-H3
C      -0.00000000      0.00000000     -0.04151713
N       0.00000000      0.00000000      1.37192420
H       0.90842000     -0.00000106     -0.64309901
H       0.49451887      0.76149423      1.83651216
H      -0.49451887     -0.76149423      1.83651216
H      -0.90842000      0.00000106     -0.64309901
6
torsion_angle=58.0 deg  rigid_scan  H2-C0=N1-H3
C      -0.00000000      0.00000000     -0.04151713
N       0.00000000      0.00000000      1.37192420
H       0.90842000     -0.00000106     -0.64309901
H       0.48115365      0.77000880      1.83651216
H      -0.48115365     -0.77000880      1.83651216
H      -0.90842000      0.00000106     -0.64309901
6
torsion_angle=59.0 deg  rigid_scan  H2-C0=N1-H3
C      -0.00000000      0.00000000     -0.04151713
N       0.00000000      0.00000000      1.37192420
H       0.90842000     -0.00000106     -0.64309901
H       0.46764186      0.77828881      1.83651216
H      -0.46764186     -0.77828881      1.83651216
H      -0.90842000      0.00000106     -0.64309901
6
torsion_angle=60.0 deg  rigid_scan  H2-C0=N1-H3
C      -0.00000000      0.00000000     -0.04151713
N       0.00000000      0.00000000      1.37192420
H       0.90842000     -0.00000106     -0.64309901
H       0.45398762      0.78633175      1.83651216
H      -0.45398762     -0.78633175      1.83651216
H      -0.90842000      0.00000106     -0.64309901
6
torsion_angle=61.0 deg  rigid_scan  H2-C0=N1-H3
C      -0.00000000      0.00000000     -0.04151713
N       0.00000000      0.00000000      1.37192420
H       0.90842000     -0.00000106     -0.64309901
H       0.44019510      0.79413516      1.83651216
H      -0.44019510     -0.79413516      1.83651216
H      -0.90842000      0.00000106     -0.64309901
6
torsion_angle=62.0 deg  rigid_scan  H2-C0=N1-H3
C      -0.00000000      0.00000000     -0.04151713
N       0.00000000      0.00000000      1.37192420
H       0.90842000     -0.00000106     -0.64309901
H       0.42626848      0.80169667      1.83651216
H      -0.42626848     -0.80169667      1.83651216
H      -0.90842000      0.00000106     -0.64309901
6
torsion_angle=63.0 deg  rigid_scan  H2-C0=N1-H3
C      -0.00000000      0.00000000     -0.04151713
N       0.00000000      0.00000000      1.37192420
H       0.90842000     -0.00000106     -0.64309901
H       0.41221203      0.80901398      1.83651216
H      -0.41221203     -0.80901398      1.83651216
H      -0.90842000      0.00000106     -0.64309901
6
torsion_angle=64.0 deg  rigid_scan  H2-C0=N1-H3
C      -0.00000000      0.00000000     -0.04151713
N       0.00000000      0.00000000      1.37192420
H       0.90842000     -0.00000106     -0.64309901
H       0.39803000      0.81608486      1.83651216
H      -0.39803000     -0.81608486      1.83651216
H      -0.90842000      0.00000106     -0.64309901
6
torsion_angle=65.0 deg  rigid_scan  H2-C0=N1-H3
C      -0.00000000      0.00000000     -0.04151713
N       0.00000000      0.00000000      1.37192420
H       0.90842000     -0.00000106     -0.64309901
H       0.38372674      0.82290715      1.83651216
H      -0.38372674     -0.82290715      1.83651216
H      -0.90842000      0.00000106     -0.64309901
6
torsion_angle=66.0 deg  rigid_scan  H2-C0=N1-H3
C      -0.00000000      0.00000000     -0.04151713
N       0.00000000      0.00000000      1.37192420
H       0.90842000     -0.00000106     -0.64309901
H       0.36930658      0.82947877      1.83651216
H      -0.36930658     -0.82947877      1.83651216
H      -0.90842000      0.00000106     -0.64309901
6
torsion_angle=67.0 deg  rigid_scan  H2-C0=N1-H3
C      -0.00000000      0.00000000     -0.04151713
N       0.00000000      0.00000000      1.37192420
H       0.90842000     -0.00000106     -0.64309901
H       0.35477394      0.83579772      1.83651216
H      -0.35477394     -0.83579772      1.83651216
H      -0.90842000      0.00000106     -0.64309901
6
torsion_angle=68.0 deg  rigid_scan  H2-C0=N1-H3
C      -0.00000000      0.00000000     -0.04151713
N       0.00000000      0.00000000      1.37192420
H       0.90842000     -0.00000106     -0.64309901
H       0.34013322      0.84186209      1.83651216
H      -0.34013322     -0.84186209      1.83651216
H      -0.90842000      0.00000106     -0.64309901
6
torsion_angle=69.0 deg  rigid_scan  H2-C0=N1-H3
C      -0.00000000      0.00000000     -0.04151713
N       0.00000000      0.00000000      1.37192420
H       0.90842000     -0.00000106     -0.64309901
H       0.32538890      0.84767001      1.83651216
H      -0.32538890     -0.84767001      1.83651216
H      -0.90842000      0.00000106     -0.64309901
6
torsion_angle=70.0 deg  rigid_scan  H2-C0=N1-H3
C      -0.00000000      0.00000000     -0.04151713
N       0.00000000      0.00000000      1.37192420
H       0.90842000     -0.00000106     -0.64309901
H       0.31054546      0.85321972      1.83651216
H      -0.31054546     -0.85321972      1.83651216
H      -0.90842000      0.00000106     -0.64309901
6
torsion_angle=71.0 deg  rigid_scan  H2-C0=N1-H3
C      -0.00000000      0.00000000     -0.04151713
N       0.00000000      0.00000000      1.37192420
H       0.90842000     -0.00000106     -0.64309901
H       0.29560742      0.85850954      1.83651216
H      -0.29560742     -0.85850954      1.83651216
H      -0.90842000      0.00000106     -0.64309901
6
torsion_angle=72.0 deg  rigid_scan  H2-C0=N1-H3
C      -0.00000000      0.00000000     -0.04151713
N       0.00000000      0.00000000      1.37192420
H       0.90842000     -0.00000106     -0.64309901
H       0.28057934      0.86353785      1.83651216
H      -0.28057934     -0.86353785      1.83651216
H      -0.90842000      0.00000106     -0.64309901
6
torsion_angle=73.0 deg  rigid_scan  H2-C0=N1-H3
C      -0.00000000      0.00000000     -0.04151713
N       0.00000000      0.00000000      1.37192420
H       0.90842000     -0.00000106     -0.64309901
H       0.26546579      0.86830311      1.83651216
H      -0.26546579     -0.86830311      1.83651216
H      -0.90842000      0.00000106     -0.64309901
6
torsion_angle=74.0 deg  rigid_scan  H2-C0=N1-H3
C      -0.00000000      0.00000000     -0.04151713
N       0.00000000      0.00000000      1.37192420
H       0.90842000     -0.00000106     -0.64309901
H       0.25027138      0.87280388      1.83651216
H      -0.25027138     -0.87280388      1.83651216
H      -0.90842000      0.00000106     -0.64309901
6
torsion_angle=75.0 deg  rigid_scan  H2-C0=N1-H3
C      -0.00000000      0.00000000     -0.04151713
N       0.00000000      0.00000000      1.37192420
H       0.90842000     -0.00000106     -0.64309901
H       0.23500074      0.87703879      1.83651216
H      -0.23500074     -0.87703879      1.83651216
H      -0.90842000      0.00000106     -0.64309901
6
torsion_angle=76.0 deg  rigid_scan  H2-C0=N1-H3
C      -0.00000000      0.00000000     -0.04151713
N       0.00000000      0.00000000      1.37192420
H       0.90842000     -0.00000106     -0.64309901
H       0.21965851      0.88100654      1.83651216
H      -0.21965851     -0.88100654      1.83651216
H      -0.90842000      0.00000106     -0.64309901
6
torsion_angle=77.0 deg  rigid_scan  H2-C0=N1-H3
C      -0.00000000      0.00000000     -0.04151713
N       0.00000000      0.00000000      1.37192420
H       0.90842000     -0.00000106     -0.64309901
H       0.20424937      0.88470593      1.83651216
H      -0.20424937     -0.88470593      1.83651216
H      -0.90842000      0.00000106     -0.64309901
6
torsion_angle=78.0 deg  rigid_scan  H2-C0=N1-H3
C      -0.00000000      0.00000000     -0.04151713
N       0.00000000      0.00000000      1.37192420
H       0.90842000     -0.00000106     -0.64309901
H       0.18877801      0.88813582      1.83651216
H      -0.18877801     -0.88813582      1.83651216
H      -0.90842000      0.00000106     -0.64309901
6
torsion_angle=79.0 deg  rigid_scan  H2-C0=N1-H3
C      -0.00000000      0.00000000     -0.04151713
N       0.00000000      0.00000000      1.37192420
H       0.90842000     -0.00000106     -0.64309901
H       0.17324916      0.89129519      1.83651216
H      -0.17324916     -0.89129519      1.83651216
H      -0.90842000      0.00000106     -0.64309901
6
torsion_angle=80.0 deg  rigid_scan  H2-C0=N1-H3
C      -0.00000000      0.00000000     -0.04151713
N       0.00000000      0.00000000      1.37192420
H       0.90842000     -0.00000106     -0.64309901
H       0.15766752      0.89418305      1.83651216
H      -0.15766752     -0.89418305      1.83651216
H      -0.90842000      0.00000106     -0.64309901
6
torsion_angle=81.0 deg  rigid_scan  H2-C0=N1-H3
C      -0.00000000      0.00000000     -0.04151713
N       0.00000000      0.00000000      1.37192420
H       0.90842000     -0.00000106     -0.64309901
H       0.14203786      0.89679854      1.83651216
H      -0.14203786     -0.89679854      1.83651216
H      -0.90842000      0.00000106     -0.64309901
6
torsion_angle=82.0 deg  rigid_scan  H2-C0=N1-H3
C      -0.00000000      0.00000000     -0.04151713
N       0.00000000      0.00000000      1.37192420
H       0.90842000     -0.00000106     -0.64309901
H       0.12636494      0.89914086      1.83651216
H      -0.12636494     -0.89914086      1.83651216
H      -0.90842000      0.00000106     -0.64309901
6
torsion_angle=83.0 deg  rigid_scan  H2-C0=N1-H3
C      -0.00000000      0.00000000     -0.04151713
N       0.00000000      0.00000000      1.37192420
H       0.90842000     -0.00000106     -0.64309901
H       0.11065352      0.90120929      1.83651216
H      -0.11065352     -0.90120929      1.83651216
H      -0.90842000      0.00000106     -0.64309901
6
torsion_angle=84.0 deg  rigid_scan  H2-C0=N1-H3
C      -0.00000000      0.00000000     -0.04151713
N       0.00000000      0.00000000      1.37192420
H       0.90842000     -0.00000106     -0.64309901
H       0.09490840      0.90300320      1.83651216
H      -0.09490840     -0.90300320      1.83651216
H      -0.90842000      0.00000106     -0.64309901
6
torsion_angle=85.0 deg  rigid_scan  H2-C0=N1-H3
C      -0.00000000      0.00000000     -0.04151713
N       0.00000000      0.00000000      1.37192420
H       0.90842000     -0.00000106     -0.64309901
H       0.07913436      0.90452205      1.83651216
H      -0.07913436     -0.90452205      1.83651216
H      -0.90842000      0.00000106     -0.64309901
6
torsion_angle=86.0 deg  rigid_scan  H2-C0=N1-H3
C      -0.00000000      0.00000000     -0.04151713
N       0.00000000      0.00000000      1.37192420
H       0.90842000     -0.00000106     -0.64309901
H       0.06333622      0.90576537      1.83651216
H      -0.06333622     -0.90576537      1.83651216
H      -0.90842000      0.00000106     -0.64309901
6
torsion_angle=87.0 deg  rigid_scan  H2-C0=N1-H3
C      -0.00000000      0.00000000     -0.04151713
N       0.00000000      0.00000000      1.37192420
H       0.90842000     -0.00000106     -0.64309901
H       0.04751879      0.90673279      1.83651216
H      -0.04751879     -0.90673279      1.83651216
H      -0.90842000      0.00000106     -0.64309901
6
torsion_angle=88.0 deg  rigid_scan  H2-C0=N1-H3
C      -0.00000000      0.00000000     -0.04151713
N       0.00000000      0.00000000      1.37192420
H       0.90842000     -0.00000106     -0.64309901
H       0.03168689      0.90742400      1.83651216
H      -0.03168689     -0.90742400      1.83651216
H      -0.90842000      0.00000106     -0.64309901
6
torsion_angle=89.0 deg  rigid_scan  H2-C0=N1-H3
C      -0.00000000      0.00000000     -0.04151713
N       0.00000000      0.00000000      1.37192420
H       0.90842000     -0.00000106     -0.64309901
H       0.01584533      0.90783881      1.83651216
H      -0.01584533     -0.90783881      1.83651216
H      -0.90842000      0.00000106     -0.64309901
6
torsion_angle=90.0 deg  rigid_scan  H2-C0=N1-H3
C      -0.00000000      0.00000000     -0.04151713
N       0.00000000      0.00000000      1.37192420
H       0.90842000     -0.00000106     -0.64309901
H      -0.00000106      0.90797708      1.83651216
H       0.00000106     -0.90797708      1.83651216
H      -0.90842000      0.00000106     -0.64309901
6
torsion_angle=91.0 deg  rigid_scan  H2-C0=N1-H3
C      -0.00000000      0.00000000     -0.04151713
N       0.00000000      0.00000000      1.37192420
H       0.90842000     -0.00000106     -0.64309901
H      -0.01584744      0.90783877      1.83651216
H       0.01584744     -0.90783877      1.83651216
H      -0.90842000      0.00000106     -0.64309901
6
torsion_angle=92.0 deg  rigid_scan  H2-C0=N1-H3
C      -0.00000000      0.00000000     -0.04151713
N       0.00000000      0.00000000      1.37192420
H       0.90842000     -0.00000106     -0.64309901
H      -0.03168900      0.90742393      1.83651216
H       0.03168900     -0.90742393      1.83651216
H      -0.90842000      0.00000106     -0.64309901
6
torsion_angle=93.0 deg  rigid_scan  H2-C0=N1-H3
C      -0.00000000      0.00000000     -0.04151713
N       0.00000000      0.00000000      1.37192420
H       0.90842000     -0.00000106     -0.64309901
H      -0.04752091      0.90673267      1.83651216
H       0.04752091     -0.90673267      1.83651216
H      -0.90842000      0.00000106     -0.64309901
6
torsion_angle=94.0 deg  rigid_scan  H2-C0=N1-H3
C      -0.00000000      0.00000000     -0.04151713
N       0.00000000      0.00000000      1.37192420
H       0.90842000     -0.00000106     -0.64309901
H      -0.06333834      0.90576522      1.83651216
H       0.06333834     -0.90576522      1.83651216
H      -0.90842000      0.00000106     -0.64309901
6
torsion_angle=95.0 deg  rigid_scan  H2-C0=N1-H3
C      -0.00000000      0.00000000     -0.04151713
N       0.00000000      0.00000000      1.37192420
H       0.90842000     -0.00000106     -0.64309901
H      -0.07913647      0.90452186      1.83651216
H       0.07913647     -0.90452186      1.83651216
H      -0.90842000      0.00000106     -0.64309901
6
torsion_angle=96.0 deg  rigid_scan  H2-C0=N1-H3
C      -0.00000000      0.00000000     -0.04151713
N       0.00000000      0.00000000      1.37192420
H       0.90842000     -0.00000106     -0.64309901
H      -0.09491050      0.90300298      1.83651216
H       0.09491050     -0.90300298      1.83651216
H      -0.90842000      0.00000106     -0.64309901
6
torsion_angle=97.0 deg  rigid_scan  H2-C0=N1-H3
C      -0.00000000      0.00000000     -0.04151713
N       0.00000000      0.00000000      1.37192420
H       0.90842000     -0.00000106     -0.64309901
H      -0.11065562      0.90120903      1.83651216
H       0.11065562     -0.90120903      1.83651216
H      -0.90842000      0.00000106     -0.64309901
6
torsion_angle=98.0 deg  rigid_scan  H2-C0=N1-H3
C      -0.00000000      0.00000000     -0.04151713
N       0.00000000      0.00000000      1.37192420
H       0.90842000     -0.00000106     -0.64309901
H      -0.12636703      0.89914056      1.83651216
H       0.12636703     -0.89914056      1.83651216
H      -0.90842000      0.00000106     -0.64309901
6
torsion_angle=99.0 deg  rigid_scan  H2-C0=N1-H3
C      -0.00000000      0.00000000     -0.04151713
N       0.00000000      0.00000000      1.37192420
H       0.90842000     -0.00000106     -0.64309901
H      -0.14203995      0.89679821      1.83651216
H       0.14203995     -0.89679821      1.83651216
H      -0.90842000      0.00000106     -0.64309901
6
torsion_angle=100.0 deg  rigid_scan  H2-C0=N1-H3
C      -0.00000000      0.00000000     -0.04151713
N       0.00000000      0.00000000      1.37192420
H       0.90842000     -0.00000106     -0.64309901
H      -0.15766961      0.89418268      1.83651216
H       0.15766961     -0.89418268      1.83651216
H      -0.90842000      0.00000106     -0.64309901
6
torsion_angle=101.0 deg  rigid_scan  H2-C0=N1-H3
C      -0.00000000      0.00000000     -0.04151713
N       0.00000000      0.00000000      1.37192420
H       0.90842000     -0.00000106     -0.64309901
H      -0.17325123      0.89129478      1.83651216
H       0.17325123     -0.89129478      1.83651216
H      -0.90842000      0.00000106     -0.64309901
6
torsion_angle=102.0 deg  rigid_scan  H2-C0=N1-H3
C      -0.00000000      0.00000000     -0.04151713
N       0.00000000      0.00000000      1.37192420
H       0.90842000     -0.00000106     -0.64309901
H      -0.18878009      0.88813538      1.83651216
H       0.18878009     -0.88813538      1.83651216
H      -0.90842000      0.00000106     -0.64309901
6
torsion_angle=103.0 deg  rigid_scan  H2-C0=N1-H3
C      -0.00000000      0.00000000     -0.04151713
N       0.00000000      0.00000000      1.37192420
H       0.90842000     -0.00000106     -0.64309901
H      -0.20425143      0.88470545      1.83651216
H       0.20425143     -0.88470545      1.83651216
H      -0.90842000      0.00000106     -0.64309901
6
torsion_angle=104.0 deg  rigid_scan  H2-C0=N1-H3
C      -0.00000000      0.00000000     -0.04151713
N       0.00000000      0.00000000      1.37192420
H       0.90842000     -0.00000106     -0.64309901
H      -0.21966056      0.88100602      1.83651216
H       0.21966056     -0.88100602      1.83651216
H      -0.90842000      0.00000106     -0.64309901
6
torsion_angle=105.0 deg  rigid_scan  H2-C0=N1-H3
C      -0.00000000      0.00000000     -0.04151713
N       0.00000000      0.00000000      1.37192420
H       0.90842000     -0.00000106     -0.64309901
H      -0.23500278      0.87703824      1.83651216
H       0.23500278     -0.87703824      1.83651216
H      -0.90842000      0.00000106     -0.64309901
6
torsion_angle=106.0 deg  rigid_scan  H2-C0=N1-H3
C      -0.00000000      0.00000000     -0.04151713
N       0.00000000      0.00000000      1.37192420
H       0.90842000     -0.00000106     -0.64309901
H      -0.25027342      0.87280330      1.83651216
H       0.25027342     -0.87280330      1.83651216
H      -0.90842000      0.00000106     -0.64309901
6
torsion_angle=107.0 deg  rigid_scan  H2-C0=N1-H3
C      -0.00000000      0.00000000     -0.04151713
N       0.00000000      0.00000000      1.37192420
H       0.90842000     -0.00000106     -0.64309901
H      -0.26546782      0.86830249      1.83651216
H       0.26546782     -0.86830249      1.83651216
H      -0.90842000      0.00000106     -0.64309901
6
torsion_angle=108.0 deg  rigid_scan  H2-C0=N1-H3
C      -0.00000000      0.00000000     -0.04151713
N       0.00000000      0.00000000      1.37192420
H       0.90842000     -0.00000106     -0.64309901
H      -0.28058136      0.86353719      1.83651216
H       0.28058136     -0.86353719      1.83651216
H      -0.90842000      0.00000106     -0.64309901
6
torsion_angle=109.0 deg  rigid_scan  H2-C0=N1-H3
C      -0.00000000      0.00000000     -0.04151713
N       0.00000000      0.00000000      1.37192420
H       0.90842000     -0.00000106     -0.64309901
H      -0.29560942      0.85850885      1.83651216
H       0.29560942     -0.85850885      1.83651216
H      -0.90842000      0.00000106     -0.64309901
6
torsion_angle=110.0 deg  rigid_scan  H2-C0=N1-H3
C      -0.00000000      0.00000000     -0.04151713
N       0.00000000      0.00000000      1.37192420
H       0.90842000     -0.00000106     -0.64309901
H      -0.31054745      0.85321900      1.83651216
H       0.31054745     -0.85321900      1.83651216
H      -0.90842000      0.00000106     -0.64309901
6
torsion_angle=111.0 deg  rigid_scan  H2-C0=N1-H3
C      -0.00000000      0.00000000     -0.04151713
N       0.00000000      0.00000000      1.37192420
H       0.90842000     -0.00000106     -0.64309901
H      -0.32539087      0.84766925      1.83651216
H       0.32539087     -0.84766925      1.83651216
H      -0.90842000      0.00000106     -0.64309901
6
torsion_angle=112.0 deg  rigid_scan  H2-C0=N1-H3
C      -0.00000000      0.00000000     -0.04151713
N       0.00000000      0.00000000      1.37192420
H       0.90842000     -0.00000106     -0.64309901
H      -0.34013518      0.84186129      1.83651216
H       0.34013518     -0.84186129      1.83651216
H      -0.90842000      0.00000106     -0.64309901
6
torsion_angle=113.0 deg  rigid_scan  H2-C0=N1-H3
C      -0.00000000      0.00000000     -0.04151713
N       0.00000000      0.00000000      1.37192420
H       0.90842000     -0.00000106     -0.64309901
H      -0.35477588      0.83579690      1.83651216
H       0.35477588     -0.83579690      1.83651216
H      -0.90842000      0.00000106     -0.64309901
6
torsion_angle=114.0 deg  rigid_scan  H2-C0=N1-H3
C      -0.00000000      0.00000000     -0.04151713
N       0.00000000      0.00000000      1.37192420
H       0.90842000     -0.00000106     -0.64309901
H      -0.36930852      0.82947791      1.83651216
H       0.36930852     -0.82947791      1.83651216
H      -0.90842000      0.00000106     -0.64309901
6
torsion_angle=115.0 deg  rigid_scan  H2-C0=N1-H3
C      -0.00000000      0.00000000     -0.04151713
N       0.00000000      0.00000000      1.37192420
H       0.90842000     -0.00000106     -0.64309901
H      -0.38372865      0.82290625      1.83651216
H       0.38372865     -0.82290625      1.83651216
H      -0.90842000      0.00000106     -0.64309901
6
torsion_angle=116.0 deg  rigid_scan  H2-C0=N1-H3
C      -0.00000000      0.00000000     -0.04151713
N       0.00000000      0.00000000      1.37192420
H       0.90842000     -0.00000106     -0.64309901
H      -0.39803191      0.81608393      1.83651216
H       0.39803191     -0.81608393      1.83651216
H      -0.90842000      0.00000106     -0.64309901
6
torsion_angle=117.0 deg  rigid_scan  H2-C0=N1-H3
C      -0.00000000      0.00000000     -0.04151713
N       0.00000000      0.00000000      1.37192420
H       0.90842000     -0.00000106     -0.64309901
H      -0.41221391      0.80901302      1.83651216
H       0.41221391     -0.80901302      1.83651216
H      -0.90842000      0.00000106     -0.64309901
6
torsion_angle=118.0 deg  rigid_scan  H2-C0=N1-H3
C      -0.00000000      0.00000000     -0.04151713
N       0.00000000      0.00000000      1.37192420
H       0.90842000     -0.00000106     -0.64309901
H      -0.42627035      0.80169568      1.83651216
H       0.42627035     -0.80169568      1.83651216
H      -0.90842000      0.00000106     -0.64309901
6
torsion_angle=119.0 deg  rigid_scan  H2-C0=N1-H3
C      -0.00000000      0.00000000     -0.04151713
N       0.00000000      0.00000000      1.37192420
H       0.90842000     -0.00000106     -0.64309901
H      -0.44019695      0.79413414      1.83651216
H       0.44019695     -0.79413414      1.83651216
H      -0.90842000      0.00000106     -0.64309901
6
torsion_angle=120.0 deg  rigid_scan  H2-C0=N1-H3
C      -0.00000000      0.00000000     -0.04151713
N       0.00000000      0.00000000      1.37192420
H       0.90842000     -0.00000106     -0.64309901
H      -0.45398946      0.78633069      1.83651216
H       0.45398946     -0.78633069      1.83651216
H      -0.90842000      0.00000106     -0.64309901
6
torsion_angle=121.0 deg  rigid_scan  H2-C0=N1-H3
C      -0.00000000      0.00000000     -0.04151713
N       0.00000000      0.00000000      1.37192420
H       0.90842000     -0.00000106     -0.64309901
H      -0.46764367      0.77828772      1.83651216
H       0.46764367     -0.77828772      1.83651216
H      -0.90842000      0.00000106     -0.64309901
6
torsion_angle=122.0 deg  rigid_scan  H2-C0=N1-H3
C      -0.00000000      0.00000000     -0.04151713
N       0.00000000      0.00000000      1.37192420
H       0.90842000     -0.00000106     -0.64309901
H      -0.48115544      0.77000767      1.83651216
H       0.48115544     -0.77000767      1.83651216
H      -0.90842000      0.00000106     -0.64309901
6
torsion_angle=123.0 deg  rigid_scan  H2-C0=N1-H3
C      -0.00000000      0.00000000     -0.04151713
N       0.00000000      0.00000000      1.37192420
H       0.90842000     -0.00000106     -0.64309901
H      -0.49452065      0.76149308      1.83651216
H       0.49452065     -0.76149308      1.83651216
H      -0.90842000      0.00000106     -0.64309901
6
torsion_angle=124.0 deg  rigid_scan  H2-C0=N1-H3
C      -0.00000000      0.00000000     -0.04151713
N       0.00000000      0.00000000      1.37192420
H       0.90842000     -0.00000106     -0.64309901
H      -0.50773522      0.75274652      1.83651216
H       0.50773522     -0.75274652      1.83651216
H      -0.90842000      0.00000106     -0.64309901
6
torsion_angle=125.0 deg  rigid_scan  H2-C0=N1-H3
C      -0.00000000      0.00000000     -0.04151713
N       0.00000000      0.00000000      1.37192420
H       0.90842000     -0.00000106     -0.64309901
H      -0.52079513      0.74377067      1.83651216
H       0.52079513     -0.74377067      1.83651216
H      -0.90842000      0.00000106     -0.64309901
6
torsion_angle=126.0 deg  rigid_scan  H2-C0=N1-H3
C      -0.00000000      0.00000000     -0.04151713
N       0.00000000      0.00000000      1.37192420
H       0.90842000     -0.00000106     -0.64309901
H      -0.53369639      0.73456827      1.83651216
H       0.53369639     -0.73456827      1.83651216
H      -0.90842000      0.00000106     -0.64309901
6
torsion_angle=127.0 deg  rigid_scan  H2-C0=N1-H3
C      -0.00000000      0.00000000     -0.04151713
N       0.00000000      0.00000000      1.37192420
H       0.90842000     -0.00000106     -0.64309901
H      -0.54643509      0.72514210      1.83651216
H       0.54643509     -0.72514210      1.83651216
H      -0.90842000      0.00000106     -0.64309901
6
torsion_angle=128.0 deg  rigid_scan  H2-C0=N1-H3
C      -0.00000000      0.00000000     -0.04151713
N       0.00000000      0.00000000      1.37192420
H       0.90842000     -0.00000106     -0.64309901
H      -0.55900734      0.71549505      1.83651216
H       0.55900734     -0.71549505      1.83651216
H      -0.90842000      0.00000106     -0.64309901
6
torsion_angle=129.0 deg  rigid_scan  H2-C0=N1-H3
C      -0.00000000      0.00000000     -0.04151713
N       0.00000000      0.00000000      1.37192420
H       0.90842000     -0.00000106     -0.64309901
H      -0.57140931      0.70563006      1.83651216
H       0.57140931     -0.70563006      1.83651216
H      -0.90842000      0.00000106     -0.64309901
6
torsion_angle=130.0 deg  rigid_scan  H2-C0=N1-H3
C      -0.00000000      0.00000000     -0.04151713
N       0.00000000      0.00000000      1.37192420
H       0.90842000     -0.00000106     -0.64309901
H      -0.58363723      0.69555012      1.83651216
H       0.58363723     -0.69555012      1.83651216
H      -0.90842000      0.00000106     -0.64309901
6
torsion_angle=131.0 deg  rigid_scan  H2-C0=N1-H3
C      -0.00000000      0.00000000     -0.04151713
N       0.00000000      0.00000000      1.37192420
H       0.90842000     -0.00000106     -0.64309901
H      -0.59568736      0.68525831      1.83651216
H       0.59568736     -0.68525831      1.83651216
H      -0.90842000      0.00000106     -0.64309901
6
torsion_angle=132.0 deg  rigid_scan  H2-C0=N1-H3
C      -0.00000000      0.00000000     -0.04151713
N       0.00000000      0.00000000      1.37192420
H       0.90842000     -0.00000106     -0.64309901
H      -0.60755604      0.67475776      1.83651216
H       0.60755604     -0.67475776      1.83651216
H      -0.90842000      0.00000106     -0.64309901
6
torsion_angle=133.0 deg  rigid_scan  H2-C0=N1-H3
C      -0.00000000      0.00000000     -0.04151713
N       0.00000000      0.00000000      1.37192420
H       0.90842000     -0.00000106     -0.64309901
H      -0.61923965      0.66405168      1.83651216
H       0.61923965     -0.66405168      1.83651216
H      -0.90842000      0.00000106     -0.64309901
6
torsion_angle=134.0 deg  rigid_scan  H2-C0=N1-H3
C      -0.00000000      0.00000000     -0.04151713
N       0.00000000      0.00000000      1.37192420
H       0.90842000     -0.00000106     -0.64309901
H      -0.63073464      0.65314332      1.83651216
H       0.63073464     -0.65314332      1.83651216
H      -0.90842000      0.00000106     -0.64309901
6
torsion_angle=135.0 deg  rigid_scan  H2-C0=N1-H3
C      -0.00000000      0.00000000     -0.04151713
N       0.00000000      0.00000000      1.37192420
H       0.90842000     -0.00000106     -0.64309901
H      -0.64203750      0.64203600      1.83651216
H       0.64203750     -0.64203600      1.83651216
H      -0.90842000      0.00000106     -0.64309901
6
torsion_angle=136.0 deg  rigid_scan  H2-C0=N1-H3
C      -0.00000000      0.00000000     -0.04151713
N       0.00000000      0.00000000      1.37192420
H       0.90842000     -0.00000106     -0.64309901
H      -0.65314479      0.63073312      1.83651216
H       0.65314479     -0.63073312      1.83651216
H      -0.90842000      0.00000106     -0.64309901
6
torsion_angle=137.0 deg  rigid_scan  H2-C0=N1-H3
C      -0.00000000      0.00000000     -0.04151713
N       0.00000000      0.00000000      1.37192420
H       0.90842000     -0.00000106     -0.64309901
H      -0.66405312      0.61923811      1.83651216
H       0.66405312     -0.61923811      1.83651216
H      -0.90842000      0.00000106     -0.64309901
6
torsion_angle=138.0 deg  rigid_scan  H2-C0=N1-H3
C      -0.00000000      0.00000000     -0.04151713
N       0.00000000      0.00000000      1.37192420
H       0.90842000     -0.00000106     -0.64309901
H      -0.67475918      0.60755447      1.83651216
H       0.67475918     -0.60755447      1.83651216
H      -0.90842000      0.00000106     -0.64309901
6
torsion_angle=139.0 deg  rigid_scan  H2-C0=N1-H3
C      -0.00000000      0.00000000     -0.04151713
N       0.00000000      0.00000000      1.37192420
H       0.90842000     -0.00000106     -0.64309901
H      -0.68525970      0.59568576      1.83651216
H       0.68525970     -0.59568576      1.83651216
H      -0.90842000      0.00000106     -0.64309901
6
torsion_angle=140.0 deg  rigid_scan  H2-C0=N1-H3
C      -0.00000000      0.00000000     -0.04151713
N       0.00000000      0.00000000      1.37192420
H       0.90842000     -0.00000106     -0.64309901
H      -0.69555148      0.58363561      1.83651216
H       0.69555148     -0.58363561      1.83651216
H      -0.90842000      0.00000106     -0.64309901
6
torsion_angle=141.0 deg  rigid_scan  H2-C0=N1-H3
C      -0.00000000      0.00000000     -0.04151713
N       0.00000000      0.00000000      1.37192420
H       0.90842000     -0.00000106     -0.64309901
H      -0.70563139      0.57140767      1.83651216
H       0.70563139     -0.57140767      1.83651216
H      -0.90842000      0.00000106     -0.64309901
6
torsion_angle=142.0 deg  rigid_scan  H2-C0=N1-H3
C      -0.00000000      0.00000000     -0.04151713
N       0.00000000      0.00000000      1.37192420
H       0.90842000     -0.00000106     -0.64309901
H      -0.71549636      0.55900568      1.83651216
H       0.71549636     -0.55900568      1.83651216
H      -0.90842000      0.00000106     -0.64309901
6
torsion_angle=143.0 deg  rigid_scan  H2-C0=N1-H3
C      -0.00000000      0.00000000     -0.04151713
N       0.00000000      0.00000000      1.37192420
H       0.90842000     -0.00000106     -0.64309901
H      -0.72514338      0.54643340      1.83651216
H       0.72514338     -0.54643340      1.83651216
H      -0.90842000      0.00000106     -0.64309901
6
torsion_angle=144.0 deg  rigid_scan  H2-C0=N1-H3
C      -0.00000000      0.00000000     -0.04151713
N       0.00000000      0.00000000      1.37192420
H       0.90842000     -0.00000106     -0.64309901
H      -0.73456951      0.53369468      1.83651216
H       0.73456951     -0.53369468      1.83651216
H      -0.90842000      0.00000106     -0.64309901
6
torsion_angle=145.0 deg  rigid_scan  H2-C0=N1-H3
C      -0.00000000      0.00000000     -0.04151713
N       0.00000000      0.00000000      1.37192420
H       0.90842000     -0.00000106     -0.64309901
H      -0.74377189      0.52079339      1.83651216
H       0.74377189     -0.52079339      1.83651216
H      -0.90842000      0.00000106     -0.64309901
6
torsion_angle=146.0 deg  rigid_scan  H2-C0=N1-H3
C      -0.00000000      0.00000000     -0.04151713
N       0.00000000      0.00000000      1.37192420
H       0.90842000     -0.00000106     -0.64309901
H      -0.75274771      0.50773346      1.83651216
H       0.75274771     -0.50773346      1.83651216
H      -0.90842000      0.00000106     -0.64309901
6
torsion_angle=147.0 deg  rigid_scan  H2-C0=N1-H3
C      -0.00000000      0.00000000     -0.04151713
N       0.00000000      0.00000000      1.37192420
H       0.90842000     -0.00000106     -0.64309901
H      -0.76149423      0.49451887      1.83651216
H       0.76149423     -0.49451887      1.83651216
H      -0.90842000      0.00000106     -0.64309901
6
torsion_angle=148.0 deg  rigid_scan  H2-C0=N1-H3
C      -0.00000000      0.00000000     -0.04151713
N       0.00000000      0.00000000      1.37192420
H       0.90842000     -0.00000106     -0.64309901
H      -0.77000880      0.48115365      1.83651216
H       0.77000880     -0.48115365      1.83651216
H      -0.90842000      0.00000106     -0.64309901
6
torsion_angle=149.0 deg  rigid_scan  H2-C0=N1-H3
C      -0.00000000      0.00000000     -0.04151713
N       0.00000000      0.00000000      1.37192420
H       0.90842000     -0.00000106     -0.64309901
H      -0.77828881      0.46764186      1.83651216
H       0.77828881     -0.46764186      1.83651216
H      -0.90842000      0.00000106     -0.64309901
6
torsion_angle=150.0 deg  rigid_scan  H2-C0=N1-H3
C      -0.00000000      0.00000000     -0.04151713
N       0.00000000      0.00000000      1.37192420
H       0.90842000     -0.00000106     -0.64309901
H      -0.78633175      0.45398762      1.83651216
H       0.78633175     -0.45398762      1.83651216
H      -0.90842000      0.00000106     -0.64309901
6
torsion_angle=151.0 deg  rigid_scan  H2-C0=N1-H3
C      -0.00000000      0.00000000     -0.04151713
N       0.00000000      0.00000000      1.37192420
H       0.90842000     -0.00000106     -0.64309901
H      -0.79413516      0.44019510      1.83651216
H       0.79413516     -0.44019510      1.83651216
H      -0.90842000      0.00000106     -0.64309901
6
torsion_angle=152.0 deg  rigid_scan  H2-C0=N1-H3
C      -0.00000000      0.00000000     -0.04151713
N       0.00000000      0.00000000      1.37192420
H       0.90842000     -0.00000106     -0.64309901
H      -0.80169667      0.42626848      1.83651216
H       0.80169667     -0.42626848      1.83651216
H      -0.90842000      0.00000106     -0.64309901
6
torsion_angle=153.0 deg  rigid_scan  H2-C0=N1-H3
C      -0.00000000      0.00000000     -0.04151713
N       0.00000000      0.00000000      1.37192420
H       0.90842000     -0.00000106     -0.64309901
H      -0.80901398      0.41221203      1.83651216
H       0.80901398     -0.41221203      1.83651216
H      -0.90842000      0.00000106     -0.64309901
6
torsion_angle=154.0 deg  rigid_scan  H2-C0=N1-H3
C      -0.00000000      0.00000000     -0.04151713
N       0.00000000      0.00000000      1.37192420
H       0.90842000     -0.00000106     -0.64309901
H      -0.81608486      0.39803000      1.83651216
H       0.81608486     -0.39803000      1.83651216
H      -0.90842000      0.00000106     -0.64309901
6
torsion_angle=155.0 deg  rigid_scan  H2-C0=N1-H3
C      -0.00000000      0.00000000     -0.04151713
N       0.00000000      0.00000000      1.37192420
H       0.90842000     -0.00000106     -0.64309901
H      -0.82290715      0.38372674      1.83651216
H       0.82290715     -0.38372674      1.83651216
H      -0.90842000      0.00000106     -0.64309901
6
torsion_angle=156.0 deg  rigid_scan  H2-C0=N1-H3
C      -0.00000000      0.00000000     -0.04151713
N       0.00000000      0.00000000      1.37192420
H       0.90842000     -0.00000106     -0.64309901
H      -0.82947877      0.36930658      1.83651216
H       0.82947877     -0.36930658      1.83651216
H      -0.90842000      0.00000106     -0.64309901
6
torsion_angle=157.0 deg  rigid_scan  H2-C0=N1-H3
C      -0.00000000      0.00000000     -0.04151713
N       0.00000000      0.00000000      1.37192420
H       0.90842000     -0.00000106     -0.64309901
H      -0.83579772      0.35477394      1.83651216
H       0.83579772     -0.35477394      1.83651216
H      -0.90842000      0.00000106     -0.64309901
6
torsion_angle=158.0 deg  rigid_scan  H2-C0=N1-H3
C      -0.00000000      0.00000000     -0.04151713
N       0.00000000      0.00000000      1.37192420
H       0.90842000     -0.00000106     -0.64309901
H      -0.84186209      0.34013322      1.83651216
H       0.84186209     -0.34013322      1.83651216
H      -0.90842000      0.00000106     -0.64309901
6
torsion_angle=159.0 deg  rigid_scan  H2-C0=N1-H3
C      -0.00000000      0.00000000     -0.04151713
N       0.00000000      0.00000000      1.37192420
H       0.90842000     -0.00000106     -0.64309901
H      -0.84767001      0.32538890      1.83651216
H       0.84767001     -0.32538890      1.83651216
H      -0.90842000      0.00000106     -0.64309901
6
torsion_angle=160.0 deg  rigid_scan  H2-C0=N1-H3
C      -0.00000000      0.00000000     -0.04151713
N       0.00000000      0.00000000      1.37192420
H       0.90842000     -0.00000106     -0.64309901
H      -0.85321972      0.31054546      1.83651216
H       0.85321972     -0.31054546      1.83651216
H      -0.90842000      0.00000106     -0.64309901
6
torsion_angle=161.0 deg  rigid_scan  H2-C0=N1-H3
C      -0.00000000      0.00000000     -0.04151713
N       0.00000000      0.00000000      1.37192420
H       0.90842000     -0.00000106     -0.64309901
H      -0.85850954      0.29560742      1.83651216
H       0.85850954     -0.29560742      1.83651216
H      -0.90842000      0.00000106     -0.64309901
6
torsion_angle=162.0 deg  rigid_scan  H2-C0=N1-H3
C      -0.00000000      0.00000000     -0.04151713
N       0.00000000      0.00000000      1.37192420
H       0.90842000     -0.00000106     -0.64309901
H      -0.86353785      0.28057934      1.83651216
H       0.86353785     -0.28057934      1.83651216
H      -0.90842000      0.00000106     -0.64309901
6
torsion_angle=163.0 deg  rigid_scan  H2-C0=N1-H3
C      -0.00000000      0.00000000     -0.04151713
N       0.00000000      0.00000000      1.37192420
H       0.90842000     -0.00000106     -0.64309901
H      -0.86830311      0.26546579      1.83651216
H       0.86830311     -0.26546579      1.83651216
H      -0.90842000      0.00000106     -0.64309901
6
torsion_angle=164.0 deg  rigid_scan  H2-C0=N1-H3
C      -0.00000000      0.00000000     -0.04151713
N       0.00000000      0.00000000      1.37192420
H       0.90842000     -0.00000106     -0.64309901
H      -0.87280388      0.25027138      1.83651216
H       0.87280388     -0.25027138      1.83651216
H      -0.90842000      0.00000106     -0.64309901
6
torsion_angle=165.0 deg  rigid_scan  H2-C0=N1-H3
C      -0.00000000      0.00000000     -0.04151713
N       0.00000000      0.00000000      1.37192420
H       0.90842000     -0.00000106     -0.64309901
H      -0.87703879      0.23500074      1.83651216
H       0.87703879     -0.23500074      1.83651216
H      -0.90842000      0.00000106     -0.64309901
6
torsion_angle=166.0 deg  rigid_scan  H2-C0=N1-H3
C      -0.00000000      0.00000000     -0.04151713
N       0.00000000      0.00000000      1.37192420
H       0.90842000     -0.00000106     -0.64309901
H      -0.88100654      0.21965851      1.83651216
H       0.88100654     -0.21965851      1.83651216
H      -0.90842000      0.00000106     -0.64309901
6
torsion_angle=167.0 deg  rigid_scan  H2-C0=N1-H3
C      -0.00000000      0.00000000     -0.04151713
N       0.00000000      0.00000000      1.37192420
H       0.90842000     -0.00000106     -0.64309901
H      -0.88470593      0.20424937      1.83651216
H       0.88470593     -0.20424937      1.83651216
H      -0.90842000      0.00000106     -0.64309901
6
torsion_angle=168.0 deg  rigid_scan  H2-C0=N1-H3
C      -0.00000000      0.00000000     -0.04151713
N       0.00000000      0.00000000      1.37192420
H       0.90842000     -0.00000106     -0.64309901
H      -0.88813582      0.18877801      1.83651216
H       0.88813582     -0.18877801      1.83651216
H      -0.90842000      0.00000106     -0.64309901
6
torsion_angle=169.0 deg  rigid_scan  H2-C0=N1-H3
C      -0.00000000      0.00000000     -0.04151713
N       0.00000000      0.00000000      1.37192420
H       0.90842000     -0.00000106     -0.64309901
H      -0.89129519      0.17324916      1.83651216
H       0.89129519     -0.17324916      1.83651216
H      -0.90842000      0.00000106     -0.64309901
6
torsion_angle=170.0 deg  rigid_scan  H2-C0=N1-H3
C      -0.00000000      0.00000000     -0.04151713
N       0.00000000      0.00000000      1.37192420
H       0.90842000     -0.00000106     -0.64309901
H      -0.89418305      0.15766752      1.83651216
H       0.89418305     -0.15766752      1.83651216
H      -0.90842000      0.00000106     -0.64309901
6
torsion_angle=171.0 deg  rigid_scan  H2-C0=N1-H3
C      -0.00000000      0.00000000     -0.04151713
N       0.00000000      0.00000000      1.37192420
H       0.90842000     -0.00000106     -0.64309901
H      -0.89679854      0.14203786      1.83651216
H       0.89679854     -0.14203786      1.83651216
H      -0.90842000      0.00000106     -0.64309901
6
torsion_angle=172.0 deg  rigid_scan  H2-C0=N1-H3
C      -0.00000000      0.00000000     -0.04151713
N       0.00000000      0.00000000      1.37192420
H       0.90842000     -0.00000106     -0.64309901
H      -0.89914086      0.12636494      1.83651216
H       0.89914086     -0.12636494      1.83651216
H      -0.90842000      0.00000106     -0.64309901
6
torsion_angle=173.0 deg  rigid_scan  H2-C0=N1-H3
C      -0.00000000      0.00000000     -0.04151713
N       0.00000000      0.00000000      1.37192420
H       0.90842000     -0.00000106     -0.64309901
H      -0.90120929      0.11065352      1.83651216
H       0.90120929     -0.11065352      1.83651216
H      -0.90842000      0.00000106     -0.64309901
6
torsion_angle=174.0 deg  rigid_scan  H2-C0=N1-H3
C      -0.00000000      0.00000000     -0.04151713
N       0.00000000      0.00000000      1.37192420
H       0.90842000     -0.00000106     -0.64309901
H      -0.90300320      0.09490840      1.83651216
H       0.90300320     -0.09490840      1.83651216
H      -0.90842000      0.00000106     -0.64309901
6
torsion_angle=175.0 deg  rigid_scan  H2-C0=N1-H3
C      -0.00000000      0.00000000     -0.04151713
N       0.00000000      0.00000000      1.37192420
H       0.90842000     -0.00000106     -0.64309901
H      -0.90452205      0.07913436      1.83651216
H       0.90452205     -0.07913436      1.83651216
H      -0.90842000      0.00000106     -0.64309901
6
torsion_angle=176.0 deg  rigid_scan  H2-C0=N1-H3
C      -0.00000000      0.00000000     -0.04151713
N       0.00000000      0.00000000      1.37192420
H       0.90842000     -0.00000106     -0.64309901
H      -0.90576537      0.06333622      1.83651216
H       0.90576537     -0.06333622      1.83651216
H      -0.90842000      0.00000106     -0.64309901
6
torsion_angle=177.0 deg  rigid_scan  H2-C0=N1-H3
C      -0.00000000      0.00000000     -0.04151713
N       0.00000000      0.00000000      1.37192420
H       0.90842000     -0.00000106     -0.64309901
H      -0.90673279      0.04751879      1.83651216
H       0.90673279     -0.04751879      1.83651216
H      -0.90842000      0.00000106     -0.64309901
6
torsion_angle=178.0 deg  rigid_scan  H2-C0=N1-H3
C      -0.00000000      0.00000000     -0.04151713
N       0.00000000      0.00000000      1.37192420
H       0.90842000     -0.00000106     -0.64309901
H      -0.90742400      0.03168689      1.83651216
H       0.90742400     -0.03168689      1.83651216
H      -0.90842000      0.00000106     -0.64309901
6
torsion_angle=179.0 deg  rigid_scan  H2-C0=N1-H3
C      -0.00000000      0.00000000     -0.04151713
N       0.00000000      0.00000000      1.37192420
H       0.90842000     -0.00000106     -0.64309901
H      -0.90783881      0.01584533      1.83651216
H       0.90783881     -0.01584533      1.83651216
H      -0.90842000      0.00000106     -0.64309901
6
torsion_angle=180.0 deg  rigid_scan  H2-C0=N1-H3
C      -0.00000000      0.00000000     -0.04151713
N       0.00000000      0.00000000      1.37192420
H       0.90842000     -0.00000106     -0.64309901
H      -0.90797708     -0.00000106      1.83651216
H       0.90797708      0.00000106      1.83651216
H      -0.90842000      0.00000106     -0.64309901
