6
rCN=0.4000 Ang  rigid_scan  C0-N1_stretch
C      -0.00000000      0.00000000     -0.04151713
N      -0.00000000      0.00000000      0.35848287
H       0.90842000     -0.00000106     -0.64309901
H       0.90797708      0.00000106      0.82307083
H      -0.90797708     -0.00000106      0.82307083
H      -0.90842000      0.00000106     -0.64309901
6
rCN=0.4100 Ang  rigid_scan  C0-N1_stretch
C      -0.00000000      0.00000000     -0.04151713
N      -0.00000000      0.00000000      0.36848287
H       0.90842000     -0.00000106     -0.64309901
H       0.90797708      0.00000106      0.83307083
H      -0.90797708     -0.00000106      0.83307083
H      -0.90842000      0.00000106     -0.64309901
6
rCN=0.4200 Ang  rigid_scan  C0-N1_stretch
C      -0.00000000      0.00000000     -0.04151713
N      -0.00000000      0.00000000      0.37848287
H       0.90842000     -0.00000106     -0.64309901
H       0.90797708      0.00000106      0.84307083
H      -0.90797708     -0.00000106      0.84307083
H      -0.90842000      0.00000106     -0.64309901
6
rCN=0.4300 Ang  rigid_scan  C0-N1_stretch
C      -0.00000000      0.00000000     -0.04151713
N      -0.00000000      0.00000000      0.38848287
H       0.90842000     -0.00000106     -0.64309901
H       0.90797708      0.00000106      0.85307083
H      -0.90797708     -0.00000106      0.85307083
H      -0.90842000      0.00000106     -0.64309901
6
rCN=0.4400 Ang  rigid_scan  C0-N1_stretch
C      -0.00000000      0.00000000     -0.04151713
N      -0.00000000      0.00000000      0.39848287
H       0.90842000     -0.00000106     -0.64309901
H       0.90797708      0.00000106      0.86307083
H      -0.90797708     -0.00000106      0.86307083
H      -0.90842000      0.00000106     -0.64309901
6
rCN=0.4500 Ang  rigid_scan  C0-N1_stretch
C      -0.00000000      0.00000000     -0.04151713
N      -0.00000000      0.00000000      0.40848287
H       0.90842000     -0.00000106     -0.64309901
H       0.90797708      0.00000106      0.87307083
H      -0.90797708     -0.00000106      0.87307083
H      -0.90842000      0.00000106     -0.64309901
6
rCN=0.4600 Ang  rigid_scan  C0-N1_stretch
C      -0.00000000      0.00000000     -0.04151713
N      -0.00000000      0.00000000      0.41848287
H       0.90842000     -0.00000106     -0.64309901
H       0.90797708      0.00000106      0.88307083
H      -0.90797708     -0.00000106      0.88307083
H      -0.90842000      0.00000106     -0.64309901
6
rCN=0.4700 Ang  rigid_scan  C0-N1_stretch
C      -0.00000000      0.00000000     -0.04151713
N      -0.00000000      0.00000000      0.42848287
H       0.90842000     -0.00000106     -0.64309901
H       0.90797708      0.00000106      0.89307083
H      -0.90797708     -0.00000106      0.89307083
H      -0.90842000      0.00000106     -0.64309901
6
rCN=0.4800 Ang  rigid_scan  C0-N1_stretch
C      -0.00000000      0.00000000     -0.04151713
N      -0.00000000      0.00000000      0.43848287
H       0.90842000     -0.00000106     -0.64309901
H       0.90797708      0.00000106      0.90307083
H      -0.90797708     -0.00000106      0.90307083
H      -0.90842000      0.00000106     -0.64309901
6
rCN=0.4900 Ang  rigid_scan  C0-N1_stretch
C      -0.00000000      0.00000000     -0.04151713
N      -0.00000000      0.00000000      0.44848287
H       0.90842000     -0.00000106     -0.64309901
H       0.90797708      0.00000106      0.91307083
H      -0.90797708     -0.00000106      0.91307083
H      -0.90842000      0.00000106     -0.64309901
6
rCN=0.5000 Ang  rigid_scan  C0-N1_stretch
C      -0.00000000      0.00000000     -0.04151713
N      -0.00000000      0.00000000      0.45848287
H       0.90842000     -0.00000106     -0.64309901
H       0.90797708      0.00000106      0.92307083
H      -0.90797708     -0.00000106      0.92307083
H      -0.90842000      0.00000106     -0.64309901
6
rCN=0.5100 Ang  rigid_scan  C0-N1_stretch
C      -0.00000000      0.00000000     -0.04151713
N      -0.00000000      0.00000000      0.46848287
H       0.90842000     -0.00000106     -0.64309901
H       0.90797708      0.00000106      0.93307083
H      -0.90797708     -0.00000106      0.93307083
H      -0.90842000      0.00000106     -0.64309901
6
rCN=0.5200 Ang  rigid_scan  C0-N1_stretch
C      -0.00000000      0.00000000     -0.04151713
N      -0.00000000      0.00000000      0.47848287
H       0.90842000     -0.00000106     -0.64309901
H       0.90797708      0.00000106      0.94307083
H      -0.90797708     -0.00000106      0.94307083
H      -0.90842000      0.00000106     -0.64309901
6
rCN=0.5300 Ang  rigid_scan  C0-N1_stretch
C      -0.00000000      0.00000000     -0.04151713
N      -0.00000000      0.00000000      0.48848287
H       0.90842000     -0.00000106     -0.64309901
H       0.90797708      0.00000106      0.95307083
H      -0.90797708     -0.00000106      0.95307083
H      -0.90842000      0.00000106     -0.64309901
6
rCN=0.5400 Ang  rigid_scan  C0-N1_stretch
C      -0.00000000      0.00000000     -0.04151713
N      -0.00000000      0.00000000      0.49848287
H       0.90842000     -0.00000106     -0.64309901
H       0.90797708      0.00000106      0.96307083
H      -0.90797708     -0.00000106      0.96307083
H      -0.90842000      0.00000106     -0.64309901
6
rCN=0.5500 Ang  rigid_scan  C0-N1_stretch
C      -0.00000000      0.00000000     -0.04151713
N      -0.00000000      0.00000000      0.50848287
H       0.90842000     -0.00000106     -0.64309901
H       0.90797708      0.00000106      0.97307083
H      -0.90797708     -0.00000106      0.97307083
H      -0.90842000      0.00000106     -0.64309901
6
rCN=0.5600 Ang  rigid_scan  C0-N1_stretch
C      -0.00000000      0.00000000     -0.04151713
N      -0.00000000      0.00000000      0.51848287
H       0.90842000     -0.00000106     -0.64309901
H       0.90797708      0.00000106      0.98307083
H      -0.90797708     -0.00000106      0.98307083
H      -0.90842000      0.00000106     -0.64309901
6
rCN=0.5700 Ang  rigid_scan  C0-N1_stretch
C      -0.00000000      0.00000000     -0.04151713
N      -0.00000000      0.00000000      0.52848287
H       0.90842000     -0.00000106     -0.64309901
H       0.90797708      0.00000106      0.99307083
H      -0.90797708     -0.00000106      0.99307083
H      -0.90842000      0.00000106     -0.64309901
6
rCN=0.5800 Ang  rigid_scan  C0-N1_stretch
C      -0.00000000      0.00000000     -0.04151713
N      -0.00000000      0.00000000      0.53848287
H       0.90842000     -0.00000106     -0.64309901
H       0.90797708      0.00000106      1.00307083
H      -0.90797708     -0.00000106      1.00307083
H      -0.90842000      0.00000106     -0.64309901
6
rCN=0.5900 Ang  rigid_scan  C0-N1_stretch
C      -0.00000000      0.00000000     -0.04151713
N      -0.00000000      0.00000000      0.54848287
H       0.90842000     -0.00000106     -0.64309901
H       0.90797708      0.00000106      1.01307083
H      -0.90797708     -0.00000106      1.01307083
H      -0.90842000      0.00000106     -0.64309901
6
rCN=0.6000 Ang  rigid_scan  C0-N1_stretch
C      -0.00000000      0.00000000     -0.04151713
N      -0.00000000      0.00000000      0.55848287
H       0.90842000     -0.00000106     -0.64309901
H       0.90797708      0.00000106      1.02307083
H      -0.90797708     -0.00000106      1.02307083
H      -0.90842000      0.00000106     -0.64309901
6
rCN=0.6100 Ang  rigid_scan  C0-N1_stretch
C      -0.00000000      0.00000000     -0.04151713
N      -0.00000000      0.00000000      0.56848287
H       0.90842000     -0.00000106     -0.64309901
H       0.90797708      0.00000106      1.03307083
H      -0.90797708     -0.00000106      1.03307083
H      -0.90842000      0.00000106     -0.64309901
6
rCN=0.6200 Ang  rigid_scan  C0-N1_stretch
C      -0.00000000      0.00000000     -0.04151713
N      -0.00000000      0.00000000      0.57848287
H       0.90842000     -0.00000106     -0.64309901
H       0.90797708      0.00000106      1.04307083
H      -0.90797708     -0.00000106      1.04307083
H      -0.90842000      0.00000106     -0.64309901
6
rCN=0.6300 Ang  rigid_scan  C0-N1_stretch
C      -0.00000000      0.00000000     -0.04151713
N      -0.00000000      0.00000000      0.58848287
H       0.90842000     -0.00000106     -0.64309901
H       0.90797708      0.00000106      1.05307083
H      -0.90797708     -0.00000106      1.05307083
H      -0.90842000      0.00000106     -0.64309901
6
rCN=0.6400 Ang  rigid_scan  C0-N1_stretch
C      -0.00000000      0.00000000     -0.04151713
N      -0.00000000      0.00000000      0.59848287
H       0.90842000     -0.00000106     -0.64309901
H       0.90797708      0.00000106      1.06307083
H      -0.90797708     -0.00000106      1.06307083
H      -0.90842000      0.00000106     -0.64309901
6
rCN=0.6500 Ang  rigid_scan  C0-N1_stretch
C      -0.00000000      0.00000000     -0.04151713
N      -0.00000000      0.00000000      0.60848287
H       0.90842000     -0.00000106     -0.64309901
H       0.90797708      0.00000106      1.07307083
H      -0.90797708     -0.00000106      1.07307083
H      -0.90842000      0.00000106     -0.64309901
6
rCN=0.6600 Ang  rigid_scan  C0-N1_stretch
C      -0.00000000      0.00000000     -0.04151713
N      -0.00000000      0.00000000      0.61848287
H       0.90842000     -0.00000106     -0.64309901
H       0.90797708      0.00000106      1.08307083
H      -0.90797708     -0.00000106      1.08307083
H      -0.90842000      0.00000106     -0.64309901
6
rCN=0.6700 Ang  rigid_scan  C0-N1_stretch
C      -0.00000000      0.00000000     -0.04151713
N      -0.00000000      0.00000000      0.62848287
H       0.90842000     -0.00000106     -0.64309901
H       0.90797708      0.00000106      1.09307083
H      -0.90797708     -0.00000106      1.09307083
H      -0.90842000      0.00000106     -0.64309901
6
rCN=0.6800 Ang  rigid_scan  C0-N1_stretch
C      -0.00000000      0.00000000     -0.04151713
N      -0.00000000      0.00000000      0.63848287
H       0.90842000     -0.00000106     -0.64309901
H       0.90797708      0.00000106      1.10307083
H      -0.90797708     -0.00000106      1.10307083
H      -0.90842000      0.00000106     -0.64309901
6
rCN=0.6900 Ang  rigid_scan  C0-N1_stretch
C      -0.00000000      0.00000000     -0.04151713
N      -0.00000000      0.00000000      0.64848287
H       0.90842000     -0.00000106     -0.64309901
H       0.90797708      0.00000106      1.11307083
H      -0.90797708     -0.00000106      1.11307083
H      -0.90842000      0.00000106     -0.64309901
6
rCN=0.7000 Ang  rigid_scan  C0-N1_stretch
C      -0.00000000      0.00000000     -0.04151713
N      -0.00000000      0.00000000      0.65848287
H       0.90842000     -0.00000106     -0.64309901
H       0.90797708      0.00000106      1.12307083
H      -0.90797708     -0.00000106      1.12307083
H      -0.90842000      0.00000106     -0.64309901
6
rCN=0.7100 Ang  rigid_scan  C0-N1_stretch
C      -0.00000000      0.00000000     -0.04151713
N      -0.00000000      0.00000000      0.66848287
H       0.90842000     -0.00000106     -0.64309901
H       0.90797708      0.00000106      1.13307083
H      -0.90797708     -0.00000106      1.13307083
H      -0.90842000      0.00000106     -0.64309901
6
rCN=0.7200 Ang  rigid_scan  C0-N1_stretch
C      -0.00000000      0.00000000     -0.04151713
N      -0.00000000      0.00000000      0.67848287
H       0.90842000     -0.00000106     -0.64309901
H       0.90797708      0.00000106      1.14307083
H      -0.90797708     -0.00000106      1.14307083
H      -0.90842000      0.00000106     -0.64309901
6
rCN=0.7300 Ang  rigid_scan  C0-N1_stretch
C      -0.00000000      0.00000000     -0.04151713
N      -0.00000000      0.00000000      0.68848287
H       0.90842000     -0.00000106     -0.64309901
H       0.90797708      0.00000106      1.15307083
H      -0.90797708     -0.00000106      1.15307083
H      -0.90842000      0.00000106     -0.64309901
6
rCN=0.7400 Ang  rigid_scan  C0-N1_stretch
C      -0.00000000      0.00000000     -0.04151713
N      -0.00000000      0.00000000      0.69848287
H       0.90842000     -0.00000106     -0.64309901
H       0.90797708      0.00000106      1.16307083
H      -0.90797708     -0.00000106      1.16307083
H      -0.90842000      0.00000106     -0.64309901
6
rCN=0.7500 Ang  rigid_scan  C0-N1_stretch
C      -0.00000000      0.00000000     -0.04151713
N      -0.00000000      0.00000000      0.70848287
H       0.90842000     -0.00000106     -0.64309901
H       0.90797708      0.00000106      1.17307083
H      -0.90797708     -0.00000106      1.17307083
H      -0.90842000      0.00000106     -0.64309901
6
rCN=0.7600 Ang  rigid_scan  C0-N1_stretch
C      -0.00000000      0.00000000     -0.04151713
N      -0.00000000      0.00000000      0.71848287
H       0.90842000     -0.00000106     -0.64309901
H       0.90797708      0.00000106      1.18307083
H      -0.90797708     -0.00000106      1.18307083
H      -0.90842000      0.00000106     -0.64309901
6
rCN=0.7700 Ang  rigid_scan  C0-N1_stretch
C      -0.00000000      0.00000000     -0.04151713
N      -0.00000000      0.00000000      0.72848287
H       0.90842000     -0.00000106     -0.64309901
H       0.90797708      0.00000106      1.19307083
H      -0.90797708     -0.00000106      1.19307083
H      -0.90842000      0.00000106     -0.64309901
6
rCN=0.7800 Ang  rigid_scan  C0-N1_stretch
C      -0.00000000      0.00000000     -0.04151713
N      -0.00000000      0.00000000      0.73848287
H       0.90842000     -0.00000106     -0.64309901
H       0.90797708      0.00000106      1.20307083
H      -0.90797708     -0.00000106      1.20307083
H      -0.90842000      0.00000106     -0.64309901
6
rCN=0.7900 Ang  rigid_scan  C0-N1_stretch
C      -0.00000000      0.00000000     -0.04151713
N      -0.00000000      0.00000000      0.74848287
H       0.90842000     -0.00000106     -0.64309901
H       0.90797708      0.00000106      1.21307083
H      -0.90797708     -0.00000106      1.21307083
H      -0.90842000      0.00000106     -0.64309901
6
rCN=0.8000 Ang  rigid_scan  C0-N1_stretch
C      -0.00000000      0.00000000     -0.04151713
N      -0.00000000      0.00000000      0.75848287
H       0.90842000     -0.00000106     -0.64309901
H       0.90797708      0.00000106      1.22307083
H      -0.90797708     -0.00000106      1.22307083
H      -0.90842000      0.00000106     -0.64309901
6
rCN=0.8100 Ang  rigid_scan  C0-N1_stretch
C      -0.00000000      0.00000000     -0.04151713
N      -0.00000000      0.00000000      0.76848287
H       0.90842000     -0.00000106     -0.64309901
H       0.90797708      0.00000106      1.23307083
H      -0.90797708     -0.00000106      1.23307083
H      -0.90842000      0.00000106     -0.64309901
6
rCN=0.8200 Ang  rigid_scan  C0-N1_stretch
C      -0.00000000      0.00000000     -0.04151713
N      -0.00000000      0.00000000      0.77848287
H       0.90842000     -0.00000106     -0.64309901
H       0.90797708      0.00000106      1.24307083
H      -0.90797708     -0.00000106      1.24307083
H      -0.90842000      0.00000106     -0.64309901
6
rCN=0.8300 Ang  rigid_scan  C0-N1_stretch
C      -0.00000000      0.00000000     -0.04151713
N      -0.00000000      0.00000000      0.78848287
H       0.90842000     -0.00000106     -0.64309901
H       0.90797708      0.00000106      1.25307083
H      -0.90797708     -0.00000106      1.25307083
H      -0.90842000      0.00000106     -0.64309901
6
rCN=0.8400 Ang  rigid_scan  C0-N1_stretch
C      -0.00000000      0.00000000     -0.04151713
N      -0.00000000      0.00000000      0.79848287
H       0.90842000     -0.00000106     -0.64309901
H       0.90797708      0.00000106      1.26307083
H      -0.90797708     -0.00000106      1.26307083
H      -0.90842000      0.00000106     -0.64309901
6
rCN=0.8500 Ang  rigid_scan  C0-N1_stretch
C      -0.00000000      0.00000000     -0.04151713
N      -0.00000000      0.00000000      0.80848287
H       0.90842000     -0.00000106     -0.64309901
H       0.90797708      0.00000106      1.27307083
H      -0.90797708     -0.00000106      1.27307083
H      -0.90842000      0.00000106     -0.64309901
6
rCN=0.8600 Ang  rigid_scan  C0-N1_stretch
C      -0.00000000      0.00000000     -0.04151713
N      -0.00000000      0.00000000      0.81848287
H       0.90842000     -0.00000106     -0.64309901
H       0.90797708      0.00000106      1.28307083
H      -0.90797708     -0.00000106      1.28307083
H      -0.90842000      0.00000106     -0.64309901
6
rCN=0.8700 Ang  rigid_scan  C0-N1_stretch
C      -0.00000000      0.00000000     -0.04151713
N      -0.00000000      0.00000000      0.82848287
H       0.90842000     -0.00000106     -0.64309901
H       0.90797708      0.00000106      1.29307083
H      -0.90797708     -0.00000106      1.29307083
H      -0.90842000      0.00000106     -0.64309901
6
rCN=0.8800 Ang  rigid_scan  C0-N1_stretch
C      -0.00000000      0.00000000     -0.04151713
N      -0.00000000      0.00000000      0.83848287
H       0.90842000     -0.00000106     -0.64309901
H       0.90797708      0.00000106      1.30307083
H      -0.90797708     -0.00000106      1.30307083
H      -0.90842000      0.00000106     -0.64309901
6
rCN=0.8900 Ang  rigid_scan  C0-N1_stretch
C      -0.00000000      0.00000000     -0.04151713
N      -0.00000000      0.00000000      0.84848287
H       0.90842000     -0.00000106     -0.64309901
H       0.90797708      0.00000106      1.31307083
H      -0.90797708     -0.00000106      1.31307083
H      -0.90842000      0.00000106     -0.64309901
6
rCN=0.9000 Ang  rigid_scan  C0-N1_stretch
C      -0.00000000      0.00000000     -0.04151713
N      -0.00000000      0.00000000      0.85848287
H       0.90842000     -0.00000106     -0.64309901
H       0.90797708      0.00000106      1.32307083
H      -0.90797708     -0.00000106      1.32307083
H      -0.90842000      0.00000106     -0.64309901
6
rCN=0.9100 Ang  rigid_scan  C0-N1_stretch
C      -0.00000000      0.00000000     -0.04151713
N      -0.00000000      0.00000000      0.86848287
H       0.90842000     -0.00000106     -0.64309901
H       0.90797708      0.00000106      1.33307083
H      -0.90797708     -0.00000106      1.33307083
H      -0.90842000      0.00000106     -0.64309901
6
rCN=0.9200 Ang  rigid_scan  C0-N1_stretch
C      -0.00000000      0.00000000     -0.04151713
N      -0.00000000      0.00000000      0.87848287
H       0.90842000     -0.00000106     -0.64309901
H       0.90797708      0.00000106      1.34307083
H      -0.90797708     -0.00000106      1.34307083
H      -0.90842000      0.00000106     -0.64309901
6
rCN=0.9300 Ang  rigid_scan  C0-N1_stretch
C      -0.00000000      0.00000000     -0.04151713
N      -0.00000000      0.00000000      0.88848287
H       0.90842000     -0.00000106     -0.64309901
H       0.90797708      0.00000106      1.35307083
H      -0.90797708     -0.00000106      1.35307083
H      -0.90842000      0.00000106     -0.64309901
6
rCN=0.9400 Ang  rigid_scan  C0-N1_stretch
C      -0.00000000      0.00000000     -0.04151713
N      -0.00000000      0.00000000      0.89848287
H       0.90842000     -0.00000106     -0.64309901
H       0.90797708      0.00000106      1.36307083
H      -0.90797708     -0.00000106      1.36307083
H      -0.90842000      0.00000106     -0.64309901
6
rCN=0.9500 Ang  rigid_scan  C0-N1_stretch
C      -0.00000000      0.00000000     -0.04151713
N      -0.00000000      0.00000000      0.90848287
H       0.90842000     -0.00000106     -0.64309901
H       0.90797708      0.00000106      1.37307083
H      -0.90797708     -0.00000106      1.37307083
H      -0.90842000      0.00000106     -0.64309901
6
rCN=0.9600 Ang  rigid_scan  C0-N1_stretch
C      -0.00000000      0.00000000     -0.04151713
N      -0.00000000      0.00000000      0.91848287
H       0.90842000     -0.00000106     -0.64309901
H       0.90797708      0.00000106      1.38307083
H      -0.90797708     -0.00000106      1.38307083
H      -0.90842000      0.00000106     -0.64309901
6
rCN=0.9700 Ang  rigid_scan  C0-N1_stretch
C      -0.00000000      0.00000000     -0.04151713
N      -0.00000000      0.00000000      0.92848287
H       0.90842000     -0.00000106     -0.64309901
H       0.90797708      0.00000106      1.39307083
H      -0.90797708     -0.00000106      1.39307083
H      -0.90842000      0.00000106     -0.64309901
6
rCN=0.9800 Ang  rigid_scan  C0-N1_stretch
C      -0.00000000      0.00000000     -0.04151713
N      -0.00000000      0.00000000      0.93848287
H       0.90842000     -0.00000106     -0.64309901
H       0.90797708      0.00000106      1.40307083
H      -0.90797708     -0.00000106      1.40307083
H      -0.90842000      0.00000106     -0.64309901
6
rCN=0.9900 Ang  rigid_scan  C0-N1_stretch
C      -0.00000000      0.00000000     -0.04151713
N      -0.00000000      0.00000000      0.94848287
H       0.90842000     -0.00000106     -0.64309901
H       0.90797708      0.00000106      1.41307083
H      -0.90797708     -0.00000106      1.41307083
H      -0.90842000      0.00000106     -0.64309901
6
rCN=1.0000 Ang  rigid_scan  C0-N1_stretch
C      -0.00000000      0.00000000     -0.04151713
N      -0.00000000      0.00000000      0.95848287
H       0.90842000     -0.00000106     -0.64309901
H       0.90797708      0.00000106      1.42307083
H      -0.90797708     -0.00000106      1.42307083
H      -0.90842000      0.00000106     -0.64309901
6
rCN=1.0100 Ang  rigid_scan  C0-N1_stretch
C      -0.00000000      0.00000000     -0.04151713
N      -0.00000000      0.00000000      0.96848287
H       0.90842000     -0.00000106     -0.64309901
H       0.90797708      0.00000106      1.43307083
H      -0.90797708     -0.00000106      1.43307083
H      -0.90842000      0.00000106     -0.64309901
6
rCN=1.0200 Ang  rigid_scan  C0-N1_stretch
C      -0.00000000      0.00000000     -0.04151713
N      -0.00000000      0.00000000      0.97848287
H       0.90842000     -0.00000106     -0.64309901
H       0.90797708      0.00000106      1.44307083
H      -0.90797708     -0.00000106      1.44307083
H      -0.90842000      0.00000106     -0.64309901
6
rCN=1.0300 Ang  rigid_scan  C0-N1_stretch
C      -0.00000000      0.00000000     -0.04151713
N      -0.00000000      0.00000000      0.98848287
H       0.90842000     -0.00000106     -0.64309901
H       0.90797708      0.00000106      1.45307083
H      -0.90797708     -0.00000106      1.45307083
H      -0.90842000      0.00000106     -0.64309901
6
rCN=1.0400 Ang  rigid_scan  C0-N1_stretch
C      -0.00000000      0.00000000     -0.04151713
N      -0.00000000      0.00000000      0.99848287
H       0.90842000     -0.00000106     -0.64309901
H       0.90797708      0.00000106      1.46307083
H      -0.90797708     -0.00000106      1.46307083
H      -0.90842000      0.00000106     -0.64309901
6
rCN=1.0500 Ang  rigid_scan  C0-N1_stretch
C      -0.00000000      0.00000000     -0.04151713
N      -0.00000000      0.00000000      1.00848287
H       0.90842000     -0.00000106     -0.64309901
H       0.90797708      0.00000106      1.47307083
H      -0.90797708     -0.00000106      1.47307083
H      -0.90842000      0.00000106     -0.64309901
6
rCN=1.0600 Ang  rigid_scan  C0-N1_stretch
C      -0.00000000      0.00000000     -0.04151713
N      -0.00000000      0.00000000      1.01848287
H       0.90842000     -0.00000106     -0.64309901
H       0.90797708      0.00000106      1.48307083
H      -0.90797708     -0.00000106      1.48307083
H      -0.90842000      0.00000106     -0.64309901
6
rCN=1.0700 Ang  rigid_scan  C0-N1_stretch
C      -0.00000000      0.00000000     -0.04151713
N      -0.00000000      0.00000000      1.02848287
H       0.90842000     -0.00000106     -0.64309901
H       0.90797708      0.00000106      1.49307083
H      -0.90797708     -0.00000106      1.49307083
H      -0.90842000      0.00000106     -0.64309901
6
rCN=1.0800 Ang  rigid_scan  C0-N1_stretch
C      -0.00000000      0.00000000     -0.04151713
N      -0.00000000      0.00000000      1.03848287
H       0.90842000     -0.00000106     -0.64309901
H       0.90797708      0.00000106      1.50307083
H      -0.90797708     -0.00000106      1.50307083
H      -0.90842000      0.00000106     -0.64309901
6
rCN=1.0900 Ang  rigid_scan  C0-N1_stretch
C      -0.00000000      0.00000000     -0.04151713
N      -0.00000000      0.00000000      1.04848287
H       0.90842000     -0.00000106     -0.64309901
H       0.90797708      0.00000106      1.51307083
H      -0.90797708     -0.00000106      1.51307083
H      -0.90842000      0.00000106     -0.64309901
6
rCN=1.1000 Ang  rigid_scan  C0-N1_stretch
C      -0.00000000      0.00000000     -0.04151713
N      -0.00000000      0.00000000      1.05848287
H       0.90842000     -0.00000106     -0.64309901
H       0.90797708      0.00000106      1.52307083
H      -0.90797708     -0.00000106      1.52307083
H      -0.90842000      0.00000106     -0.64309901
6
rCN=1.1100 Ang  rigid_scan  C0-N1_stretch
C      -0.00000000      0.00000000     -0.04151713
N      -0.00000000      0.00000000      1.06848287
H       0.90842000     -0.00000106     -0.64309901
H       0.90797708      0.00000106      1.53307083
H      -0.90797708     -0.00000106      1.53307083
H      -0.90842000      0.00000106     -0.64309901
6
rCN=1.1200 Ang  rigid_scan  C0-N1_stretch
C      -0.00000000      0.00000000     -0.04151713
N      -0.00000000      0.00000000      1.07848287
H       0.90842000     -0.00000106     -0.64309901
H       0.90797708      0.00000106      1.54307083
H      -0.90797708     -0.00000106      1.54307083
H      -0.90842000      0.00000106     -0.64309901
6
rCN=1.1300 Ang  rigid_scan  C0-N1_stretch
C      -0.00000000      0.00000000     -0.04151713
N      -0.00000000      0.00000000      1.08848287
H       0.90842000     -0.00000106     -0.64309901
H       0.90797708      0.00000106      1.55307083
H      -0.90797708     -0.00000106      1.55307083
H      -0.90842000      0.00000106     -0.64309901
6
rCN=1.1400 Ang  rigid_scan  C0-N1_stretch
C      -0.00000000      0.00000000     -0.04151713
N      -0.00000000      0.00000000      1.09848287
H       0.90842000     -0.00000106     -0.64309901
H       0.90797708      0.00000106      1.56307083
H      -0.90797708     -0.00000106      1.56307083
H      -0.90842000      0.00000106     -0.64309901
6
rCN=1.1500 Ang  rigid_scan  C0-N1_stretch
C      -0.00000000      0.00000000     -0.04151713
N      -0.00000000      0.00000000      1.10848287
H       0.90842000     -0.00000106     -0.64309901
H       0.90797708      0.00000106      1.57307083
H      -0.90797708     -0.00000106      1.57307083
H      -0.90842000      0.00000106     -0.64309901
6
rCN=1.1600 Ang  rigid_scan  C0-N1_stretch
C      -0.00000000      0.00000000     -0.04151713
N      -0.00000000      0.00000000      1.11848287
H       0.90842000     -0.00000106     -0.64309901
H       0.90797708      0.00000106      1.58307083
H      -0.90797708     -0.00000106      1.58307083
H      -0.90842000      0.00000106     -0.64309901
6
rCN=1.1700 Ang  rigid_scan  C0-N1_stretch
C      -0.00000000      0.00000000     -0.04151713
N      -0.00000000      0.00000000      1.12848287
H       0.90842000     -0.00000106     -0.64309901
H       0.90797708      0.00000106      1.59307083
H      -0.90797708     -0.00000106      1.59307083
H      -0.90842000      0.00000106     -0.64309901
6
rCN=1.1800 Ang  rigid_scan  C0-N1_stretch
C      -0.00000000      0.00000000     -0.04151713
N      -0.00000000      0.00000000      1.13848287
H       0.90842000     -0.00000106     -0.64309901
H       0.90797708      0.00000106      1.60307083
H      -0.90797708     -0.00000106      1.60307083
H      -0.90842000      0.00000106     -0.64309901
6
rCN=1.1900 Ang  rigid_scan  C0-N1_stretch
C      -0.00000000      0.00000000     -0.04151713
N      -0.00000000      0.00000000      1.14848287
H       0.90842000     -0.00000106     -0.64309901
H       0.90797708      0.00000106      1.61307083
H      -0.90797708     -0.00000106      1.61307083
H      -0.90842000      0.00000106     -0.64309901
6
rCN=1.2000 Ang  rigid_scan  C0-N1_stretch
C      -0.00000000      0.00000000     -0.04151713
N      -0.00000000      0.00000000      1.15848287
H       0.90842000     -0.00000106     -0.64309901
H       0.90797708      0.00000106      1.62307083
H      -0.90797708     -0.00000106      1.62307083
H      -0.90842000      0.00000106     -0.64309901
6
rCN=1.2100 Ang  rigid_scan  C0-N1_stretch
C      -0.00000000      0.00000000     -0.04151713
N      -0.00000000      0.00000000      1.16848287
H       0.90842000     -0.00000106     -0.64309901
H       0.90797708      0.00000106      1.63307083
H      -0.90797708     -0.00000106      1.63307083
H      -0.90842000      0.00000106     -0.64309901
6
rCN=1.2200 Ang  rigid_scan  C0-N1_stretch
C      -0.00000000      0.00000000     -0.04151713
N      -0.00000000      0.00000000      1.17848287
H       0.90842000     -0.00000106     -0.64309901
H       0.90797708      0.00000106      1.64307083
H      -0.90797708     -0.00000106      1.64307083
H      -0.90842000      0.00000106     -0.64309901
6
rCN=1.2300 Ang  rigid_scan  C0-N1_stretch
C      -0.00000000      0.00000000     -0.04151713
N      -0.00000000      0.00000000      1.18848287
H       0.90842000     -0.00000106     -0.64309901
H       0.90797708      0.00000106      1.65307083
H      -0.90797708     -0.00000106      1.65307083
H      -0.90842000      0.00000106     -0.64309901
6
rCN=1.2400 Ang  rigid_scan  C0-N1_stretch
C      -0.00000000      0.00000000     -0.04151713
N      -0.00000000      0.00000000      1.19848287
H       0.90842000     -0.00000106     -0.64309901
H       0.90797708      0.00000106      1.66307083
H      -0.90797708     -0.00000106      1.66307083
H      -0.90842000      0.00000106     -0.64309901
6
rCN=1.2500 Ang  rigid_scan  C0-N1_stretch
C      -0.00000000      0.00000000     -0.04151713
N      -0.00000000      0.00000000      1.20848287
H       0.90842000     -0.00000106     -0.64309901
H       0.90797708      0.00000106      1.67307083
H      -0.90797708     -0.00000106      1.67307083
H      -0.90842000      0.00000106     -0.64309901
6
rCN=1.2600 Ang  rigid_scan  C0-N1_stretch
C      -0.00000000      0.00000000     -0.04151713
N      -0.00000000      0.00000000      1.21848287
H       0.90842000     -0.00000106     -0.64309901
H       0.90797708      0.00000106      1.68307083
H      -0.90797708     -0.00000106      1.68307083
H      -0.90842000      0.00000106     -0.64309901
6
rCN=1.2700 Ang  rigid_scan  C0-N1_stretch
C      -0.00000000      0.00000000     -0.04151713
N      -0.00000000      0.00000000      1.22848287
H       0.90842000     -0.00000106     -0.64309901
H       0.90797708      0.00000106      1.69307083
H      -0.90797708     -0.00000106      1.69307083
H      -0.90842000      0.00000106     -0.64309901
6
rCN=1.2800 Ang  rigid_scan  C0-N1_stretch
C      -0.00000000      0.00000000     -0.04151713
N      -0.00000000      0.00000000      1.23848287
H       0.90842000     -0.00000106     -0.64309901
H       0.90797708      0.00000106      1.70307083
H      -0.90797708     -0.00000106      1.70307083
H      -0.90842000      0.00000106     -0.64309901
6
rCN=1.2900 Ang  rigid_scan  C0-N1_stretch
C      -0.00000000      0.00000000     -0.04151713
N      -0.00000000      0.00000000      1.24848287
H       0.90842000     -0.00000106     -0.64309901
H       0.90797708      0.00000106      1.71307083
H      -0.90797708     -0.00000106      1.71307083
H      -0.90842000      0.00000106     -0.64309901
6
rCN=1.3000 Ang  rigid_scan  C0-N1_stretch
C      -0.00000000      0.00000000     -0.04151713
N      -0.00000000      0.00000000      1.25848287
H       0.90842000     -0.00000106     -0.64309901
H       0.90797708      0.00000106      1.72307083
H      -0.90797708     -0.00000106      1.72307083
H      -0.90842000      0.00000106     -0.64309901
6
rCN=1.3100 Ang  rigid_scan  C0-N1_stretch
C      -0.00000000      0.00000000     -0.04151713
N      -0.00000000      0.00000000      1.26848287
H       0.90842000     -0.00000106     -0.64309901
H       0.90797708      0.00000106      1.73307083
H      -0.90797708     -0.00000106      1.73307083
H      -0.90842000      0.00000106     -0.64309901
6
rCN=1.3200 Ang  rigid_scan  C0-N1_stretch
C      -0.00000000      0.00000000     -0.04151713
N      -0.00000000      0.00000000      1.27848287
H       0.90842000     -0.00000106     -0.64309901
H       0.90797708      0.00000106      1.74307083
H      -0.90797708     -0.00000106      1.74307083
H      -0.90842000      0.00000106     -0.64309901
6
rCN=1.3300 Ang  rigid_scan  C0-N1_stretch
C      -0.00000000      0.00000000     -0.04151713
N      -0.00000000      0.00000000      1.28848287
H       0.90842000     -0.00000106     -0.64309901
H       0.90797708      0.00000106      1.75307083
H      -0.90797708     -0.00000106      1.75307083
H      -0.90842000      0.00000106     -0.64309901
6
rCN=1.3400 Ang  rigid_scan  C0-N1_stretch
C      -0.00000000      0.00000000     -0.04151713
N      -0.00000000      0.00000000      1.29848287
H       0.90842000     -0.00000106     -0.64309901
H       0.90797708      0.00000106      1.76307083
H      -0.90797708     -0.00000106      1.76307083
H      -0.90842000      0.00000106     -0.64309901
6
rCN=1.3500 Ang  rigid_scan  C0-N1_stretch
C      -0.00000000      0.00000000     -0.04151713
N      -0.00000000      0.00000000      1.30848287
H       0.90842000     -0.00000106     -0.64309901
H       0.90797708      0.00000106      1.77307083
H      -0.90797708     -0.00000106      1.77307083
H      -0.90842000      0.00000106     -0.64309901
6
rCN=1.3600 Ang  rigid_scan  C0-N1_stretch
C      -0.00000000      0.00000000     -0.04151713
N      -0.00000000      0.00000000      1.31848287
H       0.90842000     -0.00000106     -0.64309901
H       0.90797708      0.00000106      1.78307083
H      -0.90797708     -0.00000106      1.78307083
H      -0.90842000      0.00000106     -0.64309901
6
rCN=1.3700 Ang  rigid_scan  C0-N1_stretch
C      -0.00000000      0.00000000     -0.04151713
N      -0.00000000      0.00000000      1.32848287
H       0.90842000     -0.00000106     -0.64309901
H       0.90797708      0.00000106      1.79307083
H      -0.90797708     -0.00000106      1.79307083
H      -0.90842000      0.00000106     -0.64309901
6
rCN=1.3800 Ang  rigid_scan  C0-N1_stretch
C      -0.00000000      0.00000000     -0.04151713
N      -0.00000000      0.00000000      1.33848287
H       0.90842000     -0.00000106     -0.64309901
H       0.90797708      0.00000106      1.80307083
H      -0.90797708     -0.00000106      1.80307083
H      -0.90842000      0.00000106     -0.64309901
6
rCN=1.3900 Ang  rigid_scan  C0-N1_stretch
C      -0.00000000      0.00000000     -0.04151713
N      -0.00000000      0.00000000      1.34848287
H       0.90842000     -0.00000106     -0.64309901
H       0.90797708      0.00000106      1.81307083
H      -0.90797708     -0.00000106      1.81307083
H      -0.90842000      0.00000106     -0.64309901
6
rCN=1.4000 Ang  rigid_scan  C0-N1_stretch
C      -0.00000000      0.00000000     -0.04151713
N      -0.00000000      0.00000000      1.35848287
H       0.90842000     -0.00000106     -0.64309901
H       0.90797708      0.00000106      1.82307083
H      -0.90797708     -0.00000106      1.82307083
H      -0.90842000      0.00000106     -0.64309901
6
rCN=1.4100 Ang  rigid_scan  C0-N1_stretch
C      -0.00000000      0.00000000     -0.04151713
N      -0.00000000      0.00000000      1.36848287
H       0.90842000     -0.00000106     -0.64309901
H       0.90797708      0.00000106      1.83307083
H      -0.90797708     -0.00000106      1.83307083
H      -0.90842000      0.00000106     -0.64309901
6
rCN=1.4200 Ang  rigid_scan  C0-N1_stretch
C      -0.00000000      0.00000000     -0.04151713
N       0.00000000     -0.00000000      1.37848287
H       0.90842000     -0.00000106     -0.64309901
H       0.90797708      0.00000106      1.84307083
H      -0.90797708     -0.00000106      1.84307083
H      -0.90842000      0.00000106     -0.64309901
6
rCN=1.4300 Ang  rigid_scan  C0-N1_stretch
C      -0.00000000      0.00000000     -0.04151713
N       0.00000000     -0.00000000      1.38848287
H       0.90842000     -0.00000106     -0.64309901
H       0.90797708      0.00000106      1.85307083
H      -0.90797708     -0.00000106      1.85307083
H      -0.90842000      0.00000106     -0.64309901
6
rCN=1.4400 Ang  rigid_scan  C0-N1_stretch
C      -0.00000000      0.00000000     -0.04151713
N       0.00000000     -0.00000000      1.39848287
H       0.90842000     -0.00000106     -0.64309901
H       0.90797708      0.00000106      1.86307083
H      -0.90797708     -0.00000106      1.86307083
H      -0.90842000      0.00000106     -0.64309901
6
rCN=1.4500 Ang  rigid_scan  C0-N1_stretch
C      -0.00000000      0.00000000     -0.04151713
N       0.00000000     -0.00000000      1.40848287
H       0.90842000     -0.00000106     -0.64309901
H       0.90797708      0.00000106      1.87307083
H      -0.90797708     -0.00000106      1.87307083
H      -0.90842000      0.00000106     -0.64309901
6
rCN=1.4600 Ang  rigid_scan  C0-N1_stretch
C      -0.00000000      0.00000000     -0.04151713
N       0.00000000     -0.00000000      1.41848287
H       0.90842000     -0.00000106     -0.64309901
H       0.90797708      0.00000106      1.88307083
H      -0.90797708     -0.00000106      1.88307083
H      -0.90842000      0.00000106     -0.64309901
6
rCN=1.4700 Ang  rigid_scan  C0-N1_stretch
C      -0.00000000      0.00000000     -0.04151713
N       0.00000000     -0.00000000      1.42848287
H       0.90842000     -0.00000106     -0.64309901
H       0.90797708      0.00000106      1.89307083
H      -0.90797708     -0.00000106      1.89307083
H      -0.90842000      0.00000106     -0.64309901
6
rCN=1.4800 Ang  rigid_scan  C0-N1_stretch
C      -0.00000000      0.00000000     -0.04151713
N       0.00000000     -0.00000000      1.43848287
H       0.90842000     -0.00000106     -0.64309901
H       0.90797708      0.00000106      1.90307083
H      -0.90797708     -0.00000106      1.90307083
H      -0.90842000      0.00000106     -0.64309901
6
rCN=1.4900 Ang  rigid_scan  C0-N1_stretch
C      -0.00000000      0.00000000     -0.04151713
N       0.00000000     -0.00000000      1.44848287
H       0.90842000     -0.00000106     -0.64309901
H       0.90797708      0.00000106      1.91307083
H      -0.90797708     -0.00000106      1.91307083
H      -0.90842000      0.00000106     -0.64309901
6
rCN=1.5000 Ang  rigid_scan  C0-N1_stretch
C      -0.00000000      0.00000000     -0.04151713
N       0.00000000     -0.00000000      1.45848287
H       0.90842000     -0.00000106     -0.64309901
H       0.90797708      0.00000106      1.92307083
H      -0.90797708     -0.00000106      1.92307083
H      -0.90842000      0.00000106     -0.64309901
6
rCN=1.5100 Ang  rigid_scan  C0-N1_stretch
C      -0.00000000      0.00000000     -0.04151713
N       0.00000000     -0.00000000      1.46848287
H       0.90842000     -0.00000106     -0.64309901
H       0.90797708      0.00000106      1.93307083
H      -0.90797708     -0.00000106      1.93307083
H      -0.90842000      0.00000106     -0.64309901
6
rCN=1.5200 Ang  rigid_scan  C0-N1_stretch
C      -0.00000000      0.00000000     -0.04151713
N       0.00000000     -0.00000000      1.47848287
H       0.90842000     -0.00000106     -0.64309901
H       0.90797708      0.00000106      1.94307083
H      -0.90797708     -0.00000106      1.94307083
H      -0.90842000      0.00000106     -0.64309901
6
rCN=1.5300 Ang  rigid_scan  C0-N1_stretch
C      -0.00000000      0.00000000     -0.04151713
N       0.00000000     -0.00000000      1.48848287
H       0.90842000     -0.00000106     -0.64309901
H       0.90797708      0.00000106      1.95307083
H      -0.90797708     -0.00000106      1.95307083
H      -0.90842000      0.00000106     -0.64309901
6
rCN=1.5400 Ang  rigid_scan  C0-N1_stretch
C      -0.00000000      0.00000000     -0.04151713
N       0.00000000     -0.00000000      1.49848287
H       0.90842000     -0.00000106     -0.64309901
H       0.90797708      0.00000106      1.96307083
H      -0.90797708     -0.00000106      1.96307083
H      -0.90842000      0.00000106     -0.64309901
6
rCN=1.5500 Ang  rigid_scan  C0-N1_stretch
C      -0.00000000      0.00000000     -0.04151713
N       0.00000000     -0.00000000      1.50848287
H       0.90842000     -0.00000106     -0.64309901
H       0.90797708      0.00000106      1.97307083
H      -0.90797708     -0.00000106      1.97307083
H      -0.90842000      0.00000106     -0.64309901
6
rCN=1.5600 Ang  rigid_scan  C0-N1_stretch
C      -0.00000000      0.00000000     -0.04151713
N       0.00000000     -0.00000000      1.51848287
H       0.90842000     -0.00000106     -0.64309901
H       0.90797708      0.00000106      1.98307083
H      -0.90797708     -0.00000106      1.98307083
H      -0.90842000      0.00000106     -0.64309901
6
rCN=1.5700 Ang  rigid_scan  C0-N1_stretch
C      -0.00000000      0.00000000     -0.04151713
N       0.00000000     -0.00000000      1.52848287
H       0.90842000     -0.00000106     -0.64309901
H       0.90797708      0.00000106      1.99307083
H      -0.90797708     -0.00000106      1.99307083
H      -0.90842000      0.00000106     -0.64309901
6
rCN=1.5800 Ang  rigid_scan  C0-N1_stretch
C      -0.00000000      0.00000000     -0.04151713
N       0.00000000     -0.00000000      1.53848287
H       0.90842000     -0.00000106     -0.64309901
H       0.90797708      0.00000106      2.00307083
H      -0.90797708     -0.00000106      2.00307083
H      -0.90842000      0.00000106     -0.64309901
6
rCN=1.5900 Ang  rigid_scan  C0-N1_stretch
C      -0.00000000      0.00000000     -0.04151713
N       0.00000000     -0.00000000      1.54848287
H       0.90842000     -0.00000106     -0.64309901
H       0.90797708      0.00000106      2.01307083
H      -0.90797708     -0.00000106      2.01307083
H      -0.90842000      0.00000106     -0.64309901
6
rCN=1.6000 Ang  rigid_scan  C0-N1_stretch
C      -0.00000000      0.00000000     -0.04151713
N       0.00000000     -0.00000000      1.55848287
H       0.90842000     -0.00000106     -0.64309901
H       0.90797708      0.00000106      2.02307083
H      -0.90797708     -0.00000106      2.02307083
H      -0.90842000      0.00000106     -0.64309901
6
rCN=1.6100 Ang  rigid_scan  C0-N1_stretch
C      -0.00000000      0.00000000     -0.04151713
N       0.00000000     -0.00000000      1.56848287
H       0.90842000     -0.00000106     -0.64309901
H       0.90797708      0.00000106      2.03307083
H      -0.90797708     -0.00000106      2.03307083
H      -0.90842000      0.00000106     -0.64309901
6
rCN=1.6200 Ang  rigid_scan  C0-N1_stretch
C      -0.00000000      0.00000000     -0.04151713
N       0.00000000     -0.00000000      1.57848287
H       0.90842000     -0.00000106     -0.64309901
H       0.90797708      0.00000106      2.04307083
H      -0.90797708     -0.00000106      2.04307083
H      -0.90842000      0.00000106     -0.64309901
6
rCN=1.6300 Ang  rigid_scan  C0-N1_stretch
C      -0.00000000      0.00000000     -0.04151713
N       0.00000000     -0.00000000      1.58848287
H       0.90842000     -0.00000106     -0.64309901
H       0.90797708      0.00000106      2.05307083
H      -0.90797708     -0.00000106      2.05307083
H      -0.90842000      0.00000106     -0.64309901
6
rCN=1.6400 Ang  rigid_scan  C0-N1_stretch
C      -0.00000000      0.00000000     -0.04151713
N       0.00000000     -0.00000000      1.59848287
H       0.90842000     -0.00000106     -0.64309901
H       0.90797708      0.00000106      2.06307083
H      -0.90797708     -0.00000106      2.06307083
H      -0.90842000      0.00000106     -0.64309901
6
rCN=1.6500 Ang  rigid_scan  C0-N1_stretch
C      -0.00000000      0.00000000     -0.04151713
N       0.00000000     -0.00000000      1.60848287
H       0.90842000     -0.00000106     -0.64309901
H       0.90797708      0.00000106      2.07307083
H      -0.90797708     -0.00000106      2.07307083
H      -0.90842000      0.00000106     -0.64309901
6
rCN=1.6600 Ang  rigid_scan  C0-N1_stretch
C      -0.00000000      0.00000000     -0.04151713
N       0.00000000     -0.00000000      1.61848287
H       0.90842000     -0.00000106     -0.64309901
H       0.90797708      0.00000106      2.08307083
H      -0.90797708     -0.00000106      2.08307083
H      -0.90842000      0.00000106     -0.64309901
6
rCN=1.6700 Ang  rigid_scan  C0-N1_stretch
C      -0.00000000      0.00000000     -0.04151713
N       0.00000000     -0.00000000      1.62848287
H       0.90842000     -0.00000106     -0.64309901
H       0.90797708      0.00000106      2.09307083
H      -0.90797708     -0.00000106      2.09307083
H      -0.90842000      0.00000106     -0.64309901
6
rCN=1.6800 Ang  rigid_scan  C0-N1_stretch
C      -0.00000000      0.00000000     -0.04151713
N       0.00000000     -0.00000000      1.63848287
H       0.90842000     -0.00000106     -0.64309901
H       0.90797708      0.00000106      2.10307083
H      -0.90797708     -0.00000106      2.10307083
H      -0.90842000      0.00000106     -0.64309901
6
rCN=1.6900 Ang  rigid_scan  C0-N1_stretch
C      -0.00000000      0.00000000     -0.04151713
N       0.00000000     -0.00000000      1.64848287
H       0.90842000     -0.00000106     -0.64309901
H       0.90797708      0.00000106      2.11307083
H      -0.90797708     -0.00000106      2.11307083
H      -0.90842000      0.00000106     -0.64309901
6
rCN=1.7000 Ang  rigid_scan  C0-N1_stretch
C      -0.00000000      0.00000000     -0.04151713
N       0.00000000     -0.00000000      1.65848287
H       0.90842000     -0.00000106     -0.64309901
H       0.90797708      0.00000106      2.12307083
H      -0.90797708     -0.00000106      2.12307083
H      -0.90842000      0.00000106     -0.64309901
6
rCN=1.7100 Ang  rigid_scan  C0-N1_stretch
C      -0.00000000      0.00000000     -0.04151713
N       0.00000000     -0.00000000      1.66848287
H       0.90842000     -0.00000106     -0.64309901
H       0.90797708      0.00000106      2.13307083
H      -0.90797708     -0.00000106      2.13307083
H      -0.90842000      0.00000106     -0.64309901
6
rCN=1.7200 Ang  rigid_scan  C0-N1_stretch
C      -0.00000000      0.00000000     -0.04151713
N       0.00000000     -0.00000000      1.67848287
H       0.90842000     -0.00000106     -0.64309901
H       0.90797708      0.00000106      2.14307083
H      -0.90797708     -0.00000106      2.14307083
H      -0.90842000      0.00000106     -0.64309901
6
rCN=1.7300 Ang  rigid_scan  C0-N1_stretch
C      -0.00000000      0.00000000     -0.04151713
N       0.00000000     -0.00000000      1.68848287
H       0.90842000     -0.00000106     -0.64309901
H       0.90797708      0.00000106      2.15307083
H      -0.90797708     -0.00000106      2.15307083
H      -0.90842000      0.00000106     -0.64309901
6
rCN=1.7400 Ang  rigid_scan  C0-N1_stretch
C      -0.00000000      0.00000000     -0.04151713
N       0.00000000     -0.00000000      1.69848287
H       0.90842000     -0.00000106     -0.64309901
H       0.90797708      0.00000106      2.16307083
H      -0.90797708     -0.00000106      2.16307083
H      -0.90842000      0.00000106     -0.64309901
6
rCN=1.7500 Ang  rigid_scan  C0-N1_stretch
C      -0.00000000      0.00000000     -0.04151713
N       0.00000000     -0.00000000      1.70848287
H       0.90842000     -0.00000106     -0.64309901
H       0.90797708      0.00000106      2.17307083
H      -0.90797708     -0.00000106      2.17307083
H      -0.90842000      0.00000106     -0.64309901
6
rCN=1.7600 Ang  rigid_scan  C0-N1_stretch
C      -0.00000000      0.00000000     -0.04151713
N       0.00000000     -0.00000000      1.71848287
H       0.90842000     -0.00000106     -0.64309901
H       0.90797708      0.00000106      2.18307083
H      -0.90797708     -0.00000106      2.18307083
H      -0.90842000      0.00000106     -0.64309901
6
rCN=1.7700 Ang  rigid_scan  C0-N1_stretch
C      -0.00000000      0.00000000     -0.04151713
N       0.00000000     -0.00000000      1.72848287
H       0.90842000     -0.00000106     -0.64309901
H       0.90797708      0.00000106      2.19307083
H      -0.90797708     -0.00000106      2.19307083
H      -0.90842000      0.00000106     -0.64309901
6
rCN=1.7800 Ang  rigid_scan  C0-N1_stretch
C      -0.00000000      0.00000000     -0.04151713
N       0.00000000     -0.00000000      1.73848287
H       0.90842000     -0.00000106     -0.64309901
H       0.90797708      0.00000106      2.20307083
H      -0.90797708     -0.00000106      2.20307083
H      -0.90842000      0.00000106     -0.64309901
6
rCN=1.7900 Ang  rigid_scan  C0-N1_stretch
C      -0.00000000      0.00000000     -0.04151713
N       0.00000000     -0.00000000      1.74848287
H       0.90842000     -0.00000106     -0.64309901
H       0.90797708      0.00000106      2.21307083
H      -0.90797708     -0.00000106      2.21307083
H      -0.90842000      0.00000106     -0.64309901
6
rCN=1.8000 Ang  rigid_scan  C0-N1_stretch
C      -0.00000000      0.00000000     -0.04151713
N       0.00000000     -0.00000000      1.75848287
H       0.90842000     -0.00000106     -0.64309901
H       0.90797708      0.00000106      2.22307083
H      -0.90797708     -0.00000106      2.22307083
H      -0.90842000      0.00000106     -0.64309901
6
rCN=1.8100 Ang  rigid_scan  C0-N1_stretch
C      -0.00000000      0.00000000     -0.04151713
N       0.00000000     -0.00000000      1.76848287
H       0.90842000     -0.00000106     -0.64309901
H       0.90797708      0.00000106      2.23307083
H      -0.90797708     -0.00000106      2.23307083
H      -0.90842000      0.00000106     -0.64309901
6
rCN=1.8200 Ang  rigid_scan  C0-N1_stretch
C      -0.00000000      0.00000000     -0.04151713
N       0.00000000     -0.00000000      1.77848287
H       0.90842000     -0.00000106     -0.64309901
H       0.90797708      0.00000106      2.24307083
H      -0.90797708     -0.00000106      2.24307083
H      -0.90842000      0.00000106     -0.64309901
6
rCN=1.8300 Ang  rigid_scan  C0-N1_stretch
C      -0.00000000      0.00000000     -0.04151713
N       0.00000000     -0.00000000      1.78848287
H       0.90842000     -0.00000106     -0.64309901
H       0.90797708      0.00000106      2.25307083
H      -0.90797708     -0.00000106      2.25307083
H      -0.90842000      0.00000106     -0.64309901
6
rCN=1.8400 Ang  rigid_scan  C0-N1_stretch
C      -0.00000000      0.00000000     -0.04151713
N       0.00000000     -0.00000000      1.79848287
H       0.90842000     -0.00000106     -0.64309901
H       0.90797708      0.00000106      2.26307083
H      -0.90797708     -0.00000106      2.26307083
H      -0.90842000      0.00000106     -0.64309901
6
rCN=1.8500 Ang  rigid_scan  C0-N1_stretch
C      -0.00000000      0.00000000     -0.04151713
N       0.00000000     -0.00000000      1.80848287
H       0.90842000     -0.00000106     -0.64309901
H       0.90797708      0.00000106      2.27307083
H      -0.90797708     -0.00000106      2.27307083
H      -0.90842000      0.00000106     -0.64309901
6
rCN=1.8600 Ang  rigid_scan  C0-N1_stretch
C      -0.00000000      0.00000000     -0.04151713
N       0.00000000     -0.00000000      1.81848287
H       0.90842000     -0.00000106     -0.64309901
H       0.90797708      0.00000106      2.28307083
H      -0.90797708     -0.00000106      2.28307083
H      -0.90842000      0.00000106     -0.64309901
6
rCN=1.8700 Ang  rigid_scan  C0-N1_stretch
C      -0.00000000      0.00000000     -0.04151713
N       0.00000000     -0.00000000      1.82848287
H       0.90842000     -0.00000106     -0.64309901
H       0.90797708      0.00000106      2.29307083
H      -0.90797708     -0.00000106      2.29307083
H      -0.90842000      0.00000106     -0.64309901
6
rCN=1.8800 Ang  rigid_scan  C0-N1_stretch
C      -0.00000000      0.00000000     -0.04151713
N       0.00000000     -0.00000000      1.83848287
H       0.90842000     -0.00000106     -0.64309901
H       0.90797708      0.00000106      2.30307083
H      -0.90797708     -0.00000106      2.30307083
H      -0.90842000      0.00000106     -0.64309901
6
rCN=1.8900 Ang  rigid_scan  C0-N1_stretch
C      -0.00000000      0.00000000     -0.04151713
N       0.00000000     -0.00000000      1.84848287
H       0.90842000     -0.00000106     -0.64309901
H       0.90797708      0.00000106      2.31307083
H      -0.90797708     -0.00000106      2.31307083
H      -0.90842000      0.00000106     -0.64309901
6
rCN=1.9000 Ang  rigid_scan  C0-N1_stretch
C      -0.00000000      0.00000000     -0.04151713
N       0.00000000     -0.00000000      1.85848287
H       0.90842000     -0.00000106     -0.64309901
H       0.90797708      0.00000106      2.32307083
H      -0.90797708     -0.00000106      2.32307083
H      -0.90842000      0.00000106     -0.64309901
6
rCN=1.9100 Ang  rigid_scan  C0-N1_stretch
C      -0.00000000      0.00000000     -0.04151713
N       0.00000000     -0.00000000      1.86848287
H       0.90842000     -0.00000106     -0.64309901
H       0.90797708      0.00000106      2.33307083
H      -0.90797708     -0.00000106      2.33307083
H      -0.90842000      0.00000106     -0.64309901
6
rCN=1.9200 Ang  rigid_scan  C0-N1_stretch
C      -0.00000000      0.00000000     -0.04151713
N       0.00000000     -0.00000000      1.87848287
H       0.90842000     -0.00000106     -0.64309901
H       0.90797708      0.00000106      2.34307083
H      -0.90797708     -0.00000106      2.34307083
H      -0.90842000      0.00000106     -0.64309901
6
rCN=1.9300 Ang  rigid_scan  C0-N1_stretch
C      -0.00000000      0.00000000     -0.04151713
N       0.00000000     -0.00000000      1.88848287
H       0.90842000     -0.00000106     -0.64309901
H       0.90797708      0.00000106      2.35307083
H      -0.90797708     -0.00000106      2.35307083
H      -0.90842000      0.00000106     -0.64309901
6
rCN=1.9400 Ang  rigid_scan  C0-N1_stretch
C      -0.00000000      0.00000000     -0.04151713
N       0.00000000     -0.00000000      1.89848287
H       0.90842000     -0.00000106     -0.64309901
H       0.90797708      0.00000106      2.36307083
H      -0.90797708     -0.00000106      2.36307083
H      -0.90842000      0.00000106     -0.64309901
6
rCN=1.9500 Ang  rigid_scan  C0-N1_stretch
C      -0.00000000      0.00000000     -0.04151713
N       0.00000000     -0.00000000      1.90848287
H       0.90842000     -0.00000106     -0.64309901
H       0.90797708      0.00000106      2.37307083
H      -0.90797708     -0.00000106      2.37307083
H      -0.90842000      0.00000106     -0.64309901
6
rCN=1.9600 Ang  rigid_scan  C0-N1_stretch
C      -0.00000000      0.00000000     -0.04151713
N       0.00000000     -0.00000000      1.91848287
H       0.90842000     -0.00000106     -0.64309901
H       0.90797708      0.00000106      2.38307083
H      -0.90797708     -0.00000106      2.38307083
H      -0.90842000      0.00000106     -0.64309901
6
rCN=1.9700 Ang  rigid_scan  C0-N1_stretch
C      -0.00000000      0.00000000     -0.04151713
N       0.00000000     -0.00000000      1.92848287
H       0.90842000     -0.00000106     -0.64309901
H       0.90797708      0.00000106      2.39307083
H      -0.90797708     -0.00000106      2.39307083
H      -0.90842000      0.00000106     -0.64309901
6
rCN=1.9800 Ang  rigid_scan  C0-N1_stretch
C      -0.00000000      0.00000000     -0.04151713
N       0.00000000     -0.00000000      1.93848287
H       0.90842000     -0.00000106     -0.64309901
H       0.90797708      0.00000106      2.40307083
H      -0.90797708     -0.00000106      2.40307083
H      -0.90842000      0.00000106     -0.64309901
6
rCN=1.9900 Ang  rigid_scan  C0-N1_stretch
C      -0.00000000      0.00000000     -0.04151713
N       0.00000000     -0.00000000      1.94848287
H       0.90842000     -0.00000106     -0.64309901
H       0.90797708      0.00000106      2.41307083
H      -0.90797708     -0.00000106      2.41307083
H      -0.90842000      0.00000106     -0.64309901
6
rCN=2.0000 Ang  rigid_scan  C0-N1_stretch
C      -0.00000000      0.00000000     -0.04151713
N       0.00000000     -0.00000000      1.95848287
H       0.90842000     -0.00000106     -0.64309901
H       0.90797708      0.00000106      2.42307083
H      -0.90797708     -0.00000106      2.42307083
H      -0.90842000      0.00000106     -0.64309901
6
rCN=2.0100 Ang  rigid_scan  C0-N1_stretch
C      -0.00000000      0.00000000     -0.04151713
N       0.00000000     -0.00000000      1.96848287
H       0.90842000     -0.00000106     -0.64309901
H       0.90797708      0.00000106      2.43307083
H      -0.90797708     -0.00000106      2.43307083
H      -0.90842000      0.00000106     -0.64309901
6
rCN=2.0200 Ang  rigid_scan  C0-N1_stretch
C      -0.00000000      0.00000000     -0.04151713
N       0.00000000     -0.00000000      1.97848287
H       0.90842000     -0.00000106     -0.64309901
H       0.90797708      0.00000106      2.44307083
H      -0.90797708     -0.00000106      2.44307083
H      -0.90842000      0.00000106     -0.64309901
6
rCN=2.0300 Ang  rigid_scan  C0-N1_stretch
C      -0.00000000      0.00000000     -0.04151713
N       0.00000000     -0.00000000      1.98848287
H       0.90842000     -0.00000106     -0.64309901
H       0.90797708      0.00000106      2.45307083
H      -0.90797708     -0.00000106      2.45307083
H      -0.90842000      0.00000106     -0.64309901
6
rCN=2.0400 Ang  rigid_scan  C0-N1_stretch
C      -0.00000000      0.00000000     -0.04151713
N       0.00000000     -0.00000000      1.99848287
H       0.90842000     -0.00000106     -0.64309901
H       0.90797708      0.00000106      2.46307083
H      -0.90797708     -0.00000106      2.46307083
H      -0.90842000      0.00000106     -0.64309901
6
rCN=2.0500 Ang  rigid_scan  C0-N1_stretch
C      -0.00000000      0.00000000     -0.04151713
N       0.00000000     -0.00000000      2.00848287
H       0.90842000     -0.00000106     -0.64309901
H       0.90797708      0.00000106      2.47307083
H      -0.90797708     -0.00000106      2.47307083
H      -0.90842000      0.00000106     -0.64309901
6
rCN=2.0600 Ang  rigid_scan  C0-N1_stretch
C      -0.00000000      0.00000000     -0.04151713
N       0.00000000     -0.00000000      2.01848287
H       0.90842000     -0.00000106     -0.64309901
H       0.90797708      0.00000106      2.48307083
H      -0.90797708     -0.00000106      2.48307083
H      -0.90842000      0.00000106     -0.64309901
6
rCN=2.0700 Ang  rigid_scan  C0-N1_stretch
C      -0.00000000      0.00000000     -0.04151713
N       0.00000000     -0.00000000      2.02848287
H       0.90842000     -0.00000106     -0.64309901
H       0.90797708      0.00000106      2.49307083
H      -0.90797708     -0.00000106      2.49307083
H      -0.90842000      0.00000106     -0.64309901
6
rCN=2.0800 Ang  rigid_scan  C0-N1_stretch
C      -0.00000000      0.00000000     -0.04151713
N       0.00000000     -0.00000000      2.03848287
H       0.90842000     -0.00000106     -0.64309901
H       0.90797708      0.00000106      2.50307083
H      -0.90797708     -0.00000106      2.50307083
H      -0.90842000      0.00000106     -0.64309901
6
rCN=2.0900 Ang  rigid_scan  C0-N1_stretch
C      -0.00000000      0.00000000     -0.04151713
N       0.00000000     -0.00000000      2.04848287
H       0.90842000     -0.00000106     -0.64309901
H       0.90797708      0.00000106      2.51307083
H      -0.90797708     -0.00000106      2.51307083
H      -0.90842000      0.00000106     -0.64309901
6
rCN=2.1000 Ang  rigid_scan  C0-N1_stretch
C      -0.00000000      0.00000000     -0.04151713
N       0.00000000     -0.00000000      2.05848287
H       0.90842000     -0.00000106     -0.64309901
H       0.90797708      0.00000106      2.52307083
H      -0.90797708     -0.00000106      2.52307083
H      -0.90842000      0.00000106     -0.64309901
6
rCN=2.1100 Ang  rigid_scan  C0-N1_stretch
C      -0.00000000      0.00000000     -0.04151713
N       0.00000000     -0.00000000      2.06848287
H       0.90842000     -0.00000106     -0.64309901
H       0.90797708      0.00000106      2.53307083
H      -0.90797708     -0.00000106      2.53307083
H      -0.90842000      0.00000106     -0.64309901
6
rCN=2.1200 Ang  rigid_scan  C0-N1_stretch
C      -0.00000000      0.00000000     -0.04151713
N       0.00000000     -0.00000000      2.07848287
H       0.90842000     -0.00000106     -0.64309901
H       0.90797708      0.00000106      2.54307083
H      -0.90797708     -0.00000106      2.54307083
H      -0.90842000      0.00000106     -0.64309901
6
rCN=2.1300 Ang  rigid_scan  C0-N1_stretch
C      -0.00000000      0.00000000     -0.04151713
N       0.00000000     -0.00000000      2.08848287
H       0.90842000     -0.00000106     -0.64309901
H       0.90797708      0.00000106      2.55307083
H      -0.90797708     -0.00000106      2.55307083
H      -0.90842000      0.00000106     -0.64309901
6
rCN=2.1400 Ang  rigid_scan  C0-N1_stretch
C      -0.00000000      0.00000000     -0.04151713
N       0.00000000     -0.00000000      2.09848287
H       0.90842000     -0.00000106     -0.64309901
H       0.90797708      0.00000106      2.56307083
H      -0.90797708     -0.00000106      2.56307083
H      -0.90842000      0.00000106     -0.64309901
6
rCN=2.1500 Ang  rigid_scan  C0-N1_stretch
C      -0.00000000      0.00000000     -0.04151713
N       0.00000000     -0.00000000      2.10848287
H       0.90842000     -0.00000106     -0.64309901
H       0.90797708      0.00000106      2.57307083
H      -0.90797708     -0.00000106      2.57307083
H      -0.90842000      0.00000106     -0.64309901
6
rCN=2.1600 Ang  rigid_scan  C0-N1_stretch
C      -0.00000000      0.00000000     -0.04151713
N       0.00000000     -0.00000000      2.11848287
H       0.90842000     -0.00000106     -0.64309901
H       0.90797708      0.00000106      2.58307083
H      -0.90797708     -0.00000106      2.58307083
H      -0.90842000      0.00000106     -0.64309901
6
rCN=2.1700 Ang  rigid_scan  C0-N1_stretch
C      -0.00000000      0.00000000     -0.04151713
N       0.00000000     -0.00000000      2.12848287
H       0.90842000     -0.00000106     -0.64309901
H       0.90797708      0.00000106      2.59307083
H      -0.90797708     -0.00000106      2.59307083
H      -0.90842000      0.00000106     -0.64309901
6
rCN=2.1800 Ang  rigid_scan  C0-N1_stretch
C      -0.00000000      0.00000000     -0.04151713
N       0.00000000     -0.00000000      2.13848287
H       0.90842000     -0.00000106     -0.64309901
H       0.90797708      0.00000106      2.60307083
H      -0.90797708     -0.00000106      2.60307083
H      -0.90842000      0.00000106     -0.64309901
6
rCN=2.1900 Ang  rigid_scan  C0-N1_stretch
C      -0.00000000      0.00000000     -0.04151713
N       0.00000000     -0.00000000      2.14848287
H       0.90842000     -0.00000106     -0.64309901
H       0.90797708      0.00000106      2.61307083
H      -0.90797708     -0.00000106      2.61307083
H      -0.90842000      0.00000106     -0.64309901
6
rCN=2.2000 Ang  rigid_scan  C0-N1_stretch
C      -0.00000000      0.00000000     -0.04151713
N       0.00000000     -0.00000000      2.15848287
H       0.90842000     -0.00000106     -0.64309901
H       0.90797708      0.00000106      2.62307083
H      -0.90797708     -0.00000106      2.62307083
H      -0.90842000      0.00000106     -0.64309901
6
rCN=2.2100 Ang  rigid_scan  C0-N1_stretch
C      -0.00000000      0.00000000     -0.04151713
N       0.00000000     -0.00000000      2.16848287
H       0.90842000     -0.00000106     -0.64309901
H       0.90797708      0.00000106      2.63307083
H      -0.90797708     -0.00000106      2.63307083
H      -0.90842000      0.00000106     -0.64309901
6
rCN=2.2200 Ang  rigid_scan  C0-N1_stretch
C      -0.00000000      0.00000000     -0.04151713
N       0.00000000     -0.00000000      2.17848287
H       0.90842000     -0.00000106     -0.64309901
H       0.90797708      0.00000106      2.64307083
H      -0.90797708     -0.00000106      2.64307083
H      -0.90842000      0.00000106     -0.64309901
6
rCN=2.2300 Ang  rigid_scan  C0-N1_stretch
C      -0.00000000      0.00000000     -0.04151713
N       0.00000000     -0.00000000      2.18848287
H       0.90842000     -0.00000106     -0.64309901
H       0.90797708      0.00000106      2.65307083
H      -0.90797708     -0.00000106      2.65307083
H      -0.90842000      0.00000106     -0.64309901
6
rCN=2.2400 Ang  rigid_scan  C0-N1_stretch
C      -0.00000000      0.00000000     -0.04151713
N       0.00000000     -0.00000000      2.19848287
H       0.90842000     -0.00000106     -0.64309901
H       0.90797708      0.00000106      2.66307083
H      -0.90797708     -0.00000106      2.66307083
H      -0.90842000      0.00000106     -0.64309901
6
rCN=2.2500 Ang  rigid_scan  C0-N1_stretch
C      -0.00000000      0.00000000     -0.04151713
N       0.00000000     -0.00000000      2.20848287
H       0.90842000     -0.00000106     -0.64309901
H       0.90797708      0.00000106      2.67307083
H      -0.90797708     -0.00000106      2.67307083
H      -0.90842000      0.00000106     -0.64309901
6
rCN=2.2600 Ang  rigid_scan  C0-N1_stretch
C      -0.00000000      0.00000000     -0.04151713
N       0.00000000     -0.00000000      2.21848287
H       0.90842000     -0.00000106     -0.64309901
H       0.90797708      0.00000106      2.68307083
H      -0.90797708     -0.00000106      2.68307083
H      -0.90842000      0.00000106     -0.64309901
6
rCN=2.2700 Ang  rigid_scan  C0-N1_stretch
C      -0.00000000      0.00000000     -0.04151713
N       0.00000000     -0.00000000      2.22848287
H       0.90842000     -0.00000106     -0.64309901
H       0.90797708      0.00000106      2.69307083
H      -0.90797708     -0.00000106      2.69307083
H      -0.90842000      0.00000106     -0.64309901
6
rCN=2.2800 Ang  rigid_scan  C0-N1_stretch
C      -0.00000000      0.00000000     -0.04151713
N       0.00000000     -0.00000000      2.23848287
H       0.90842000     -0.00000106     -0.64309901
H       0.90797708      0.00000106      2.70307083
H      -0.90797708     -0.00000106      2.70307083
H      -0.90842000      0.00000106     -0.64309901
6
rCN=2.2900 Ang  rigid_scan  C0-N1_stretch
C      -0.00000000      0.00000000     -0.04151713
N       0.00000000     -0.00000000      2.24848287
H       0.90842000     -0.00000106     -0.64309901
H       0.90797708      0.00000106      2.71307083
H      -0.90797708     -0.00000106      2.71307083
H      -0.90842000      0.00000106     -0.64309901
6
rCN=2.3000 Ang  rigid_scan  C0-N1_stretch
C      -0.00000000      0.00000000     -0.04151713
N       0.00000000     -0.00000000      2.25848287
H       0.90842000     -0.00000106     -0.64309901
H       0.90797708      0.00000106      2.72307083
H      -0.90797708     -0.00000106      2.72307083
H      -0.90842000      0.00000106     -0.64309901
6
rCN=2.3100 Ang  rigid_scan  C0-N1_stretch
C      -0.00000000      0.00000000     -0.04151713
N       0.00000000     -0.00000000      2.26848287
H       0.90842000     -0.00000106     -0.64309901
H       0.90797708      0.00000106      2.73307083
H      -0.90797708     -0.00000106      2.73307083
H      -0.90842000      0.00000106     -0.64309901
6
rCN=2.3200 Ang  rigid_scan  C0-N1_stretch
C      -0.00000000      0.00000000     -0.04151713
N       0.00000000     -0.00000000      2.27848287
H       0.90842000     -0.00000106     -0.64309901
H       0.90797708      0.00000106      2.74307083
H      -0.90797708     -0.00000106      2.74307083
H      -0.90842000      0.00000106     -0.64309901
6
rCN=2.3300 Ang  rigid_scan  C0-N1_stretch
C      -0.00000000      0.00000000     -0.04151713
N       0.00000000     -0.00000000      2.28848287
H       0.90842000     -0.00000106     -0.64309901
H       0.90797708      0.00000106      2.75307083
H      -0.90797708     -0.00000106      2.75307083
H      -0.90842000      0.00000106     -0.64309901
6
rCN=2.3400 Ang  rigid_scan  C0-N1_stretch
C      -0.00000000      0.00000000     -0.04151713
N       0.00000000     -0.00000000      2.29848287
H       0.90842000     -0.00000106     -0.64309901
H       0.90797708      0.00000106      2.76307083
H      -0.90797708     -0.00000106      2.76307083
H      -0.90842000      0.00000106     -0.64309901
6
rCN=2.3500 Ang  rigid_scan  C0-N1_stretch
C      -0.00000000      0.00000000     -0.04151713
N       0.00000000     -0.00000000      2.30848287
H       0.90842000     -0.00000106     -0.64309901
H       0.90797708      0.00000106      2.77307083
H      -0.90797708     -0.00000106      2.77307083
H      -0.90842000      0.00000106     -0.64309901
6
rCN=2.3600 Ang  rigid_scan  C0-N1_stretch
C      -0.00000000      0.00000000     -0.04151713
N       0.00000000     -0.00000000      2.31848287
H       0.90842000     -0.00000106     -0.64309901
H       0.90797708      0.00000106      2.78307083
H      -0.90797708     -0.00000106      2.78307083
H      -0.90842000      0.00000106     -0.64309901
6
rCN=2.3700 Ang  rigid_scan  C0-N1_stretch
C      -0.00000000      0.00000000     -0.04151713
N       0.00000000     -0.00000000      2.32848287
H       0.90842000     -0.00000106     -0.64309901
H       0.90797708      0.00000106      2.79307083
H      -0.90797708     -0.00000106      2.79307083
H      -0.90842000      0.00000106     -0.64309901
6
rCN=2.3800 Ang  rigid_scan  C0-N1_stretch
C      -0.00000000      0.00000000     -0.04151713
N       0.00000000     -0.00000000      2.33848287
H       0.90842000     -0.00000106     -0.64309901
H       0.90797708      0.00000106      2.80307083
H      -0.90797708     -0.00000106      2.80307083
H      -0.90842000      0.00000106     -0.64309901
6
rCN=2.3900 Ang  rigid_scan  C0-N1_stretch
C      -0.00000000      0.00000000     -0.04151713
N       0.00000000     -0.00000000      2.34848287
H       0.90842000     -0.00000106     -0.64309901
H       0.90797708      0.00000106      2.81307083
H      -0.90797708     -0.00000106      2.81307083
H      -0.90842000      0.00000106     -0.64309901
6
rCN=2.4000 Ang  rigid_scan  C0-N1_stretch
C      -0.00000000      0.00000000     -0.04151713
N       0.00000000     -0.00000000      2.35848287
H       0.90842000     -0.00000106     -0.64309901
H       0.90797708      0.00000106      2.82307083
H      -0.90797708     -0.00000106      2.82307083
H      -0.90842000      0.00000106     -0.64309901
6
rCN=2.4100 Ang  rigid_scan  C0-N1_stretch
C      -0.00000000      0.00000000     -0.04151713
N       0.00000000     -0.00000000      2.36848287
H       0.90842000     -0.00000106     -0.64309901
H       0.90797708      0.00000106      2.83307083
H      -0.90797708     -0.00000106      2.83307083
H      -0.90842000      0.00000106     -0.64309901
6
rCN=2.4200 Ang  rigid_scan  C0-N1_stretch
C      -0.00000000      0.00000000     -0.04151713
N       0.00000000     -0.00000000      2.37848287
H       0.90842000     -0.00000106     -0.64309901
H       0.90797708      0.00000106      2.84307083
H      -0.90797708     -0.00000106      2.84307083
H      -0.90842000      0.00000106     -0.64309901
6
rCN=2.4300 Ang  rigid_scan  C0-N1_stretch
C      -0.00000000      0.00000000     -0.04151713
N       0.00000000     -0.00000000      2.38848287
H       0.90842000     -0.00000106     -0.64309901
H       0.90797708      0.00000106      2.85307083
H      -0.90797708     -0.00000106      2.85307083
H      -0.90842000      0.00000106     -0.64309901
6
rCN=2.4400 Ang  rigid_scan  C0-N1_stretch
C      -0.00000000      0.00000000     -0.04151713
N       0.00000000     -0.00000000      2.39848287
H       0.90842000     -0.00000106     -0.64309901
H       0.90797708      0.00000106      2.86307083
H      -0.90797708     -0.00000106      2.86307083
H      -0.90842000      0.00000106     -0.64309901
6
rCN=2.4500 Ang  rigid_scan  C0-N1_stretch
C      -0.00000000      0.00000000     -0.04151713
N       0.00000000     -0.00000000      2.40848287
H       0.90842000     -0.00000106     -0.64309901
H       0.90797708      0.00000106      2.87307083
H      -0.90797708     -0.00000106      2.87307083
H      -0.90842000      0.00000106     -0.64309901
6
rCN=2.4600 Ang  rigid_scan  C0-N1_stretch
C      -0.00000000      0.00000000     -0.04151713
N       0.00000000     -0.00000000      2.41848287
H       0.90842000     -0.00000106     -0.64309901
H       0.90797708      0.00000106      2.88307083
H      -0.90797708     -0.00000106      2.88307083
H      -0.90842000      0.00000106     -0.64309901
6
rCN=2.4700 Ang  rigid_scan  C0-N1_stretch
C      -0.00000000      0.00000000     -0.04151713
N       0.00000000     -0.00000000      2.42848287
H       0.90842000     -0.00000106     -0.64309901
H       0.90797708      0.00000106      2.89307083
H      -0.90797708     -0.00000106      2.89307083
H      -0.90842000      0.00000106     -0.64309901
6
rCN=2.4800 Ang  rigid_scan  C0-N1_stretch
C      -0.00000000      0.00000000     -0.04151713
N       0.00000000     -0.00000000      2.43848287
H       0.90842000     -0.00000106     -0.64309901
H       0.90797708      0.00000106      2.90307083
H      -0.90797708     -0.00000106      2.90307083
H      -0.90842000      0.00000106     -0.64309901
6
rCN=2.4900 Ang  rigid_scan  C0-N1_stretch
C      -0.00000000      0.00000000     -0.04151713
N       0.00000000     -0.00000000      2.44848287
H       0.90842000     -0.00000106     -0.64309901
H       0.90797708      0.00000106      2.91307083
H      -0.90797708     -0.00000106      2.91307083
H      -0.90842000      0.00000106     -0.64309901
6
rCN=2.5000 Ang  rigid_scan  C0-N1_stretch
C      -0.00000000      0.00000000     -0.04151713
N       0.00000000     -0.00000000      2.45848287
H       0.90842000     -0.00000106     -0.64309901
H       0.90797708      0.00000106      2.92307083
H      -0.90797708     -0.00000106      2.92307083
H      -0.90842000      0.00000106     -0.64309901
6
rCN=2.5100 Ang  rigid_scan  C0-N1_stretch
C      -0.00000000      0.00000000     -0.04151713
N       0.00000000     -0.00000000      2.46848287
H       0.90842000     -0.00000106     -0.64309901
H       0.90797708      0.00000106      2.93307083
H      -0.90797708     -0.00000106      2.93307083
H      -0.90842000      0.00000106     -0.64309901
6
rCN=2.5200 Ang  rigid_scan  C0-N1_stretch
C      -0.00000000      0.00000000     -0.04151713
N       0.00000000     -0.00000000      2.47848287
H       0.90842000     -0.00000106     -0.64309901
H       0.90797708      0.00000106      2.94307083
H      -0.90797708     -0.00000106      2.94307083
H      -0.90842000      0.00000106     -0.64309901
6
rCN=2.5300 Ang  rigid_scan  C0-N1_stretch
C      -0.00000000      0.00000000     -0.04151713
N       0.00000000     -0.00000000      2.48848287
H       0.90842000     -0.00000106     -0.64309901
H       0.90797708      0.00000106      2.95307083
H      -0.90797708     -0.00000106      2.95307083
H      -0.90842000      0.00000106     -0.64309901
6
rCN=2.5400 Ang  rigid_scan  C0-N1_stretch
C      -0.00000000      0.00000000     -0.04151713
N       0.00000000     -0.00000000      2.49848287
H       0.90842000     -0.00000106     -0.64309901
H       0.90797708      0.00000106      2.96307083
H      -0.90797708     -0.00000106      2.96307083
H      -0.90842000      0.00000106     -0.64309901
6
rCN=2.5500 Ang  rigid_scan  C0-N1_stretch
C      -0.00000000      0.00000000     -0.04151713
N       0.00000000     -0.00000000      2.50848287
H       0.90842000     -0.00000106     -0.64309901
H       0.90797708      0.00000106      2.97307083
H      -0.90797708     -0.00000106      2.97307083
H      -0.90842000      0.00000106     -0.64309901
6
rCN=2.5600 Ang  rigid_scan  C0-N1_stretch
C      -0.00000000      0.00000000     -0.04151713
N       0.00000000     -0.00000000      2.51848287
H       0.90842000     -0.00000106     -0.64309901
H       0.90797708      0.00000106      2.98307083
H      -0.90797708     -0.00000106      2.98307083
H      -0.90842000      0.00000106     -0.64309901
6
rCN=2.5700 Ang  rigid_scan  C0-N1_stretch
C      -0.00000000      0.00000000     -0.04151713
N       0.00000000     -0.00000000      2.52848287
H       0.90842000     -0.00000106     -0.64309901
H       0.90797708      0.00000106      2.99307083
H      -0.90797708     -0.00000106      2.99307083
H      -0.90842000      0.00000106     -0.64309901
6
rCN=2.5800 Ang  rigid_scan  C0-N1_stretch
C      -0.00000000      0.00000000     -0.04151713
N       0.00000000     -0.00000000      2.53848287
H       0.90842000     -0.00000106     -0.64309901
H       0.90797708      0.00000106      3.00307083
H      -0.90797708     -0.00000106      3.00307083
H      -0.90842000      0.00000106     -0.64309901
6
rCN=2.5900 Ang  rigid_scan  C0-N1_stretch
C      -0.00000000      0.00000000     -0.04151713
N       0.00000000     -0.00000000      2.54848287
H       0.90842000     -0.00000106     -0.64309901
H       0.90797708      0.00000106      3.01307083
H      -0.90797708     -0.00000106      3.01307083
H      -0.90842000      0.00000106     -0.64309901
6
rCN=2.6000 Ang  rigid_scan  C0-N1_stretch
C      -0.00000000      0.00000000     -0.04151713
N       0.00000000     -0.00000000      2.55848287
H       0.90842000     -0.00000106     -0.64309901
H       0.90797708      0.00000106      3.02307083
H      -0.90797708     -0.00000106      3.02307083
H      -0.90842000      0.00000106     -0.64309901
6
rCN=2.6100 Ang  rigid_scan  C0-N1_stretch
C      -0.00000000      0.00000000     -0.04151713
N       0.00000000     -0.00000000      2.56848287
H       0.90842000     -0.00000106     -0.64309901
H       0.90797708      0.00000106      3.03307083
H      -0.90797708     -0.00000106      3.03307083
H      -0.90842000      0.00000106     -0.64309901
6
rCN=2.6200 Ang  rigid_scan  C0-N1_stretch
C      -0.00000000      0.00000000     -0.04151713
N       0.00000000     -0.00000000      2.57848287
H       0.90842000     -0.00000106     -0.64309901
H       0.90797708      0.00000106      3.04307083
H      -0.90797708     -0.00000106      3.04307083
H      -0.90842000      0.00000106     -0.64309901
6
rCN=2.6300 Ang  rigid_scan  C0-N1_stretch
C      -0.00000000      0.00000000     -0.04151713
N       0.00000000     -0.00000000      2.58848287
H       0.90842000     -0.00000106     -0.64309901
H       0.90797708      0.00000106      3.05307083
H      -0.90797708     -0.00000106      3.05307083
H      -0.90842000      0.00000106     -0.64309901
6
rCN=2.6400 Ang  rigid_scan  C0-N1_stretch
C      -0.00000000      0.00000000     -0.04151713
N       0.00000000     -0.00000000      2.59848287
H       0.90842000     -0.00000106     -0.64309901
H       0.90797708      0.00000106      3.06307083
H      -0.90797708     -0.00000106      3.06307083
H      -0.90842000      0.00000106     -0.64309901
6
rCN=2.6500 Ang  rigid_scan  C0-N1_stretch
C      -0.00000000      0.00000000     -0.04151713
N       0.00000000     -0.00000000      2.60848287
H       0.90842000     -0.00000106     -0.64309901
H       0.90797708      0.00000106      3.07307083
H      -0.90797708     -0.00000106      3.07307083
H      -0.90842000      0.00000106     -0.64309901
6
rCN=2.6600 Ang  rigid_scan  C0-N1_stretch
C      -0.00000000      0.00000000     -0.04151713
N       0.00000000     -0.00000000      2.61848287
H       0.90842000     -0.00000106     -0.64309901
H       0.90797708      0.00000106      3.08307083
H      -0.90797708     -0.00000106      3.08307083
H      -0.90842000      0.00000106     -0.64309901
6
rCN=2.6700 Ang  rigid_scan  C0-N1_stretch
C      -0.00000000      0.00000000     -0.04151713
N       0.00000000     -0.00000000      2.62848287
H       0.90842000     -0.00000106     -0.64309901
H       0.90797708      0.00000106      3.09307083
H      -0.90797708     -0.00000106      3.09307083
H      -0.90842000      0.00000106     -0.64309901
6
rCN=2.6800 Ang  rigid_scan  C0-N1_stretch
C      -0.00000000      0.00000000     -0.04151713
N       0.00000000     -0.00000000      2.63848287
H       0.90842000     -0.00000106     -0.64309901
H       0.90797708      0.00000106      3.10307083
H      -0.90797708     -0.00000106      3.10307083
H      -0.90842000      0.00000106     -0.64309901
6
rCN=2.6900 Ang  rigid_scan  C0-N1_stretch
C      -0.00000000      0.00000000     -0.04151713
N       0.00000000     -0.00000000      2.64848287
H       0.90842000     -0.00000106     -0.64309901
H       0.90797708      0.00000106      3.11307083
H      -0.90797708     -0.00000106      3.11307083
H      -0.90842000      0.00000106     -0.64309901
6
rCN=2.7000 Ang  rigid_scan  C0-N1_stretch
C      -0.00000000      0.00000000     -0.04151713
N       0.00000000     -0.00000000      2.65848287
H       0.90842000     -0.00000106     -0.64309901
H       0.90797708      0.00000106      3.12307083
H      -0.90797708     -0.00000106      3.12307083
H      -0.90842000      0.00000106     -0.64309901
6
rCN=2.7100 Ang  rigid_scan  C0-N1_stretch
C      -0.00000000      0.00000000     -0.04151713
N       0.00000000     -0.00000000      2.66848287
H       0.90842000     -0.00000106     -0.64309901
H       0.90797708      0.00000106      3.13307083
H      -0.90797708     -0.00000106      3.13307083
H      -0.90842000      0.00000106     -0.64309901
6
rCN=2.7200 Ang  rigid_scan  C0-N1_stretch
C      -0.00000000      0.00000000     -0.04151713
N       0.00000000     -0.00000000      2.67848287
H       0.90842000     -0.00000106     -0.64309901
H       0.90797708      0.00000106      3.14307083
H      -0.90797708     -0.00000106      3.14307083
H      -0.90842000      0.00000106     -0.64309901
6
rCN=2.7300 Ang  rigid_scan  C0-N1_stretch
C      -0.00000000      0.00000000     -0.04151713
N       0.00000000     -0.00000000      2.68848287
H       0.90842000     -0.00000106     -0.64309901
H       0.90797708      0.00000106      3.15307083
H      -0.90797708     -0.00000106      3.15307083
H      -0.90842000      0.00000106     -0.64309901
6
rCN=2.7400 Ang  rigid_scan  C0-N1_stretch
C      -0.00000000      0.00000000     -0.04151713
N       0.00000000     -0.00000000      2.69848287
H       0.90842000     -0.00000106     -0.64309901
H       0.90797708      0.00000106      3.16307083
H      -0.90797708     -0.00000106      3.16307083
H      -0.90842000      0.00000106     -0.64309901
6
rCN=2.7500 Ang  rigid_scan  C0-N1_stretch
C      -0.00000000      0.00000000     -0.04151713
N       0.00000000     -0.00000000      2.70848287
H       0.90842000     -0.00000106     -0.64309901
H       0.90797708      0.00000106      3.17307083
H      -0.90797708     -0.00000106      3.17307083
H      -0.90842000      0.00000106     -0.64309901
6
rCN=2.7600 Ang  rigid_scan  C0-N1_stretch
C      -0.00000000      0.00000000     -0.04151713
N       0.00000000     -0.00000000      2.71848287
H       0.90842000     -0.00000106     -0.64309901
H       0.90797708      0.00000106      3.18307083
H      -0.90797708     -0.00000106      3.18307083
H      -0.90842000      0.00000106     -0.64309901
6
rCN=2.7700 Ang  rigid_scan  C0-N1_stretch
C      -0.00000000      0.00000000     -0.04151713
N       0.00000000     -0.00000000      2.72848287
H       0.90842000     -0.00000106     -0.64309901
H       0.90797708      0.00000106      3.19307083
H      -0.90797708     -0.00000106      3.19307083
H      -0.90842000      0.00000106     -0.64309901
6
rCN=2.7800 Ang  rigid_scan  C0-N1_stretch
C      -0.00000000      0.00000000     -0.04151713
N       0.00000000     -0.00000000      2.73848287
H       0.90842000     -0.00000106     -0.64309901
H       0.90797708      0.00000106      3.20307083
H      -0.90797708     -0.00000106      3.20307083
H      -0.90842000      0.00000106     -0.64309901
6
rCN=2.7900 Ang  rigid_scan  C0-N1_stretch
C      -0.00000000      0.00000000     -0.04151713
N       0.00000000     -0.00000000      2.74848287
H       0.90842000     -0.00000106     -0.64309901
H       0.90797708      0.00000106      3.21307083
H      -0.90797708     -0.00000106      3.21307083
H      -0.90842000      0.00000106     -0.64309901
6
rCN=2.8000 Ang  rigid_scan  C0-N1_stretch
C      -0.00000000      0.00000000     -0.04151713
N       0.00000000     -0.00000000      2.75848287
H       0.90842000     -0.00000106     -0.64309901
H       0.90797708      0.00000106      3.22307083
H      -0.90797708     -0.00000106      3.22307083
H      -0.90842000      0.00000106     -0.64309901
6
rCN=2.8100 Ang  rigid_scan  C0-N1_stretch
C      -0.00000000      0.00000000     -0.04151713
N       0.00000000     -0.00000000      2.76848287
H       0.90842000     -0.00000106     -0.64309901
H       0.90797708      0.00000106      3.23307083
H      -0.90797708     -0.00000106      3.23307083
H      -0.90842000      0.00000106     -0.64309901
6
rCN=2.8200 Ang  rigid_scan  C0-N1_stretch
C      -0.00000000      0.00000000     -0.04151713
N       0.00000000     -0.00000000      2.77848287
H       0.90842000     -0.00000106     -0.64309901
H       0.90797708      0.00000106      3.24307083
H      -0.90797708     -0.00000106      3.24307083
H      -0.90842000      0.00000106     -0.64309901
6
rCN=2.8300 Ang  rigid_scan  C0-N1_stretch
C      -0.00000000      0.00000000     -0.04151713
N       0.00000000     -0.00000000      2.78848287
H       0.90842000     -0.00000106     -0.64309901
H       0.90797708      0.00000106      3.25307083
H      -0.90797708     -0.00000106      3.25307083
H      -0.90842000      0.00000106     -0.64309901
6
rCN=2.8400 Ang  rigid_scan  C0-N1_stretch
C      -0.00000000      0.00000000     -0.04151713
N       0.00000000     -0.00000000      2.79848287
H       0.90842000     -0.00000106     -0.64309901
H       0.90797708      0.00000106      3.26307083
H      -0.90797708     -0.00000106      3.26307083
H      -0.90842000      0.00000106     -0.64309901
6
rCN=2.8500 Ang  rigid_scan  C0-N1_stretch
C      -0.00000000      0.00000000     -0.04151713
N       0.00000000     -0.00000000      2.80848287
H       0.90842000     -0.00000106     -0.64309901
H       0.90797708      0.00000106      3.27307083
H      -0.90797708     -0.00000106      3.27307083
H      -0.90842000      0.00000106     -0.64309901
6
rCN=2.8600 Ang  rigid_scan  C0-N1_stretch
C      -0.00000000      0.00000000     -0.04151713
N       0.00000000     -0.00000000      2.81848287
H       0.90842000     -0.00000106     -0.64309901
H       0.90797708      0.00000106      3.28307083
H      -0.90797708     -0.00000106      3.28307083
H      -0.90842000      0.00000106     -0.64309901
6
rCN=2.8700 Ang  rigid_scan  C0-N1_stretch
C      -0.00000000      0.00000000     -0.04151713
N       0.00000000     -0.00000000      2.82848287
H       0.90842000     -0.00000106     -0.64309901
H       0.90797708      0.00000106      3.29307083
H      -0.90797708     -0.00000106      3.29307083
H      -0.90842000      0.00000106     -0.64309901
6
rCN=2.8800 Ang  rigid_scan  C0-N1_stretch
C      -0.00000000      0.00000000     -0.04151713
N       0.00000000     -0.00000000      2.83848287
H       0.90842000     -0.00000106     -0.64309901
H       0.90797708      0.00000106      3.30307083
H      -0.90797708     -0.00000106      3.30307083
H      -0.90842000      0.00000106     -0.64309901
6
rCN=2.8900 Ang  rigid_scan  C0-N1_stretch
C      -0.00000000      0.00000000     -0.04151713
N       0.00000000     -0.00000000      2.84848287
H       0.90842000     -0.00000106     -0.64309901
H       0.90797708      0.00000106      3.31307083
H      -0.90797708     -0.00000106      3.31307083
H      -0.90842000      0.00000106     -0.64309901
6
rCN=2.9000 Ang  rigid_scan  C0-N1_stretch
C      -0.00000000      0.00000000     -0.04151713
N       0.00000000     -0.00000000      2.85848287
H       0.90842000     -0.00000106     -0.64309901
H       0.90797708      0.00000106      3.32307083
H      -0.90797708     -0.00000106      3.32307083
H      -0.90842000      0.00000106     -0.64309901
6
rCN=2.9100 Ang  rigid_scan  C0-N1_stretch
C      -0.00000000      0.00000000     -0.04151713
N       0.00000000     -0.00000000      2.86848287
H       0.90842000     -0.00000106     -0.64309901
H       0.90797708      0.00000106      3.33307083
H      -0.90797708     -0.00000106      3.33307083
H      -0.90842000      0.00000106     -0.64309901
6
rCN=2.9200 Ang  rigid_scan  C0-N1_stretch
C      -0.00000000      0.00000000     -0.04151713
N       0.00000000     -0.00000000      2.87848287
H       0.90842000     -0.00000106     -0.64309901
H       0.90797708      0.00000106      3.34307083
H      -0.90797708     -0.00000106      3.34307083
H      -0.90842000      0.00000106     -0.64309901
6
rCN=2.9300 Ang  rigid_scan  C0-N1_stretch
C      -0.00000000      0.00000000     -0.04151713
N       0.00000000     -0.00000000      2.88848287
H       0.90842000     -0.00000106     -0.64309901
H       0.90797708      0.00000106      3.35307083
H      -0.90797708     -0.00000106      3.35307083
H      -0.90842000      0.00000106     -0.64309901
6
rCN=2.9400 Ang  rigid_scan  C0-N1_stretch
C      -0.00000000      0.00000000     -0.04151713
N       0.00000000     -0.00000000      2.89848287
H       0.90842000     -0.00000106     -0.64309901
H       0.90797708      0.00000106      3.36307083
H      -0.90797708     -0.00000106      3.36307083
H      -0.90842000      0.00000106     -0.64309901
6
rCN=2.9500 Ang  rigid_scan  C0-N1_stretch
C      -0.00000000      0.00000000     -0.04151713
N       0.00000000     -0.00000000      2.90848287
H       0.90842000     -0.00000106     -0.64309901
H       0.90797708      0.00000106      3.37307083
H      -0.90797708     -0.00000106      3.37307083
H      -0.90842000      0.00000106     -0.64309901
6
rCN=2.9600 Ang  rigid_scan  C0-N1_stretch
C      -0.00000000      0.00000000     -0.04151713
N       0.00000000     -0.00000000      2.91848287
H       0.90842000     -0.00000106     -0.64309901
H       0.90797708      0.00000106      3.38307083
H      -0.90797708     -0.00000106      3.38307083
H      -0.90842000      0.00000106     -0.64309901
6
rCN=2.9700 Ang  rigid_scan  C0-N1_stretch
C      -0.00000000      0.00000000     -0.04151713
N       0.00000000     -0.00000000      2.92848287
H       0.90842000     -0.00000106     -0.64309901
H       0.90797708      0.00000106      3.39307083
H      -0.90797708     -0.00000106      3.39307083
H      -0.90842000      0.00000106     -0.64309901
6
rCN=2.9800 Ang  rigid_scan  C0-N1_stretch
C      -0.00000000      0.00000000     -0.04151713
N       0.00000000     -0.00000000      2.93848287
H       0.90842000     -0.00000106     -0.64309901
H       0.90797708      0.00000106      3.40307083
H      -0.90797708     -0.00000106      3.40307083
H      -0.90842000      0.00000106     -0.64309901
6
rCN=2.9900 Ang  rigid_scan  C0-N1_stretch
C      -0.00000000      0.00000000     -0.04151713
N       0.00000000     -0.00000000      2.94848287
H       0.90842000     -0.00000106     -0.64309901
H       0.90797708      0.00000106      3.41307083
H      -0.90797708     -0.00000106      3.41307083
H      -0.90842000      0.00000106     -0.64309901
6
rCN=3.0000 Ang  rigid_scan  C0-N1_stretch
C      -0.00000000      0.00000000     -0.04151713
N       0.00000000     -0.00000000      2.95848287
H       0.90842000     -0.00000106     -0.64309901
H       0.90797708      0.00000106      3.42307083
H      -0.90797708     -0.00000106      3.42307083
H      -0.90842000      0.00000106     -0.64309901
6
rCN=3.0100 Ang  rigid_scan  C0-N1_stretch
C      -0.00000000      0.00000000     -0.04151713
N       0.00000000     -0.00000000      2.96848287
H       0.90842000     -0.00000106     -0.64309901
H       0.90797708      0.00000106      3.43307083
H      -0.90797708     -0.00000106      3.43307083
H      -0.90842000      0.00000106     -0.64309901
6
rCN=3.0200 Ang  rigid_scan  C0-N1_stretch
C      -0.00000000      0.00000000     -0.04151713
N       0.00000000     -0.00000000      2.97848287
H       0.90842000     -0.00000106     -0.64309901
H       0.90797708      0.00000106      3.44307083
H      -0.90797708     -0.00000106      3.44307083
H      -0.90842000      0.00000106     -0.64309901
6
rCN=3.0300 Ang  rigid_scan  C0-N1_stretch
C      -0.00000000      0.00000000     -0.04151713
N       0.00000000     -0.00000000      2.98848287
H       0.90842000     -0.00000106     -0.64309901
H       0.90797708      0.00000106      3.45307083
H      -0.90797708     -0.00000106      3.45307083
H      -0.90842000      0.00000106     -0.64309901
6
rCN=3.0400 Ang  rigid_scan  C0-N1_stretch
C      -0.00000000      0.00000000     -0.04151713
N       0.00000000     -0.00000000      2.99848287
H       0.90842000     -0.00000106     -0.64309901
H       0.90797708      0.00000106      3.46307083
H      -0.90797708     -0.00000106      3.46307083
H      -0.90842000      0.00000106     -0.64309901
6
rCN=3.0500 Ang  rigid_scan  C0-N1_stretch
C      -0.00000000      0.00000000     -0.04151713
N       0.00000000     -0.00000000      3.00848287
H       0.90842000     -0.00000106     -0.64309901
H       0.90797708      0.00000106      3.47307083
H      -0.90797708     -0.00000106      3.47307083
H      -0.90842000      0.00000106     -0.64309901
6
rCN=3.0600 Ang  rigid_scan  C0-N1_stretch
C      -0.00000000      0.00000000     -0.04151713
N       0.00000000     -0.00000000      3.01848287
H       0.90842000     -0.00000106     -0.64309901
H       0.90797708      0.00000106      3.48307083
H      -0.90797708     -0.00000106      3.48307083
H      -0.90842000      0.00000106     -0.64309901
6
rCN=3.0700 Ang  rigid_scan  C0-N1_stretch
C      -0.00000000      0.00000000     -0.04151713
N       0.00000000     -0.00000000      3.02848287
H       0.90842000     -0.00000106     -0.64309901
H       0.90797708      0.00000106      3.49307083
H      -0.90797708     -0.00000106      3.49307083
H      -0.90842000      0.00000106     -0.64309901
6
rCN=3.0800 Ang  rigid_scan  C0-N1_stretch
C      -0.00000000      0.00000000     -0.04151713
N       0.00000000     -0.00000000      3.03848287
H       0.90842000     -0.00000106     -0.64309901
H       0.90797708      0.00000106      3.50307083
H      -0.90797708     -0.00000106      3.50307083
H      -0.90842000      0.00000106     -0.64309901
6
rCN=3.0900 Ang  rigid_scan  C0-N1_stretch
C      -0.00000000      0.00000000     -0.04151713
N       0.00000000     -0.00000000      3.04848287
H       0.90842000     -0.00000106     -0.64309901
H       0.90797708      0.00000106      3.51307083
H      -0.90797708     -0.00000106      3.51307083
H      -0.90842000      0.00000106     -0.64309901
6
rCN=3.1000 Ang  rigid_scan  C0-N1_stretch
C      -0.00000000      0.00000000     -0.04151713
N       0.00000000     -0.00000000      3.05848287
H       0.90842000     -0.00000106     -0.64309901
H       0.90797708      0.00000106      3.52307083
H      -0.90797708     -0.00000106      3.52307083
H      -0.90842000      0.00000106     -0.64309901
6
rCN=3.1100 Ang  rigid_scan  C0-N1_stretch
C      -0.00000000      0.00000000     -0.04151713
N       0.00000000     -0.00000000      3.06848287
H       0.90842000     -0.00000106     -0.64309901
H       0.90797708      0.00000106      3.53307083
H      -0.90797708     -0.00000106      3.53307083
H      -0.90842000      0.00000106     -0.64309901
6
rCN=3.1200 Ang  rigid_scan  C0-N1_stretch
C      -0.00000000      0.00000000     -0.04151713
N       0.00000000     -0.00000000      3.07848287
H       0.90842000     -0.00000106     -0.64309901
H       0.90797708      0.00000106      3.54307083
H      -0.90797708     -0.00000106      3.54307083
H      -0.90842000      0.00000106     -0.64309901
6
rCN=3.1300 Ang  rigid_scan  C0-N1_stretch
C      -0.00000000      0.00000000     -0.04151713
N       0.00000000     -0.00000000      3.08848287
H       0.90842000     -0.00000106     -0.64309901
H       0.90797708      0.00000106      3.55307083
H      -0.90797708     -0.00000106      3.55307083
H      -0.90842000      0.00000106     -0.64309901
6
rCN=3.1400 Ang  rigid_scan  C0-N1_stretch
C      -0.00000000      0.00000000     -0.04151713
N       0.00000000     -0.00000000      3.09848287
H       0.90842000     -0.00000106     -0.64309901
H       0.90797708      0.00000106      3.56307083
H      -0.90797708     -0.00000106      3.56307083
H      -0.90842000      0.00000106     -0.64309901
6
rCN=3.1500 Ang  rigid_scan  C0-N1_stretch
C      -0.00000000      0.00000000     -0.04151713
N       0.00000000     -0.00000000      3.10848287
H       0.90842000     -0.00000106     -0.64309901
H       0.90797708      0.00000106      3.57307083
H      -0.90797708     -0.00000106      3.57307083
H      -0.90842000      0.00000106     -0.64309901
6
rCN=3.1600 Ang  rigid_scan  C0-N1_stretch
C      -0.00000000      0.00000000     -0.04151713
N       0.00000000     -0.00000000      3.11848287
H       0.90842000     -0.00000106     -0.64309901
H       0.90797708      0.00000106      3.58307083
H      -0.90797708     -0.00000106      3.58307083
H      -0.90842000      0.00000106     -0.64309901
6
rCN=3.1700 Ang  rigid_scan  C0-N1_stretch
C      -0.00000000      0.00000000     -0.04151713
N       0.00000000     -0.00000000      3.12848287
H       0.90842000     -0.00000106     -0.64309901
H       0.90797708      0.00000106      3.59307083
H      -0.90797708     -0.00000106      3.59307083
H      -0.90842000      0.00000106     -0.64309901
6
rCN=3.1800 Ang  rigid_scan  C0-N1_stretch
C      -0.00000000      0.00000000     -0.04151713
N       0.00000000     -0.00000000      3.13848287
H       0.90842000     -0.00000106     -0.64309901
H       0.90797708      0.00000106      3.60307083
H      -0.90797708     -0.00000106      3.60307083
H      -0.90842000      0.00000106     -0.64309901
6
rCN=3.1900 Ang  rigid_scan  C0-N1_stretch
C      -0.00000000      0.00000000     -0.04151713
N       0.00000000     -0.00000000      3.14848287
H       0.90842000     -0.00000106     -0.64309901
H       0.90797708      0.00000106      3.61307083
H      -0.90797708     -0.00000106      3.61307083
H      -0.90842000      0.00000106     -0.64309901
6
rCN=3.2000 Ang  rigid_scan  C0-N1_stretch
C      -0.00000000      0.00000000     -0.04151713
N       0.00000000     -0.00000000      3.15848287
H       0.90842000     -0.00000106     -0.64309901
H       0.90797708      0.00000106      3.62307083
H      -0.90797708     -0.00000106      3.62307083
H      -0.90842000      0.00000106     -0.64309901
