6
step=0 t=0.000 fs active_state=2 phi=2.74 deg E_0=0.0090eV E_1=6.2966eV E_2=14.3242eV
C  0.006597  -0.007979  -0.035630
N  -0.005645  0.013951  1.351597
H  0.899025  0.005622  -0.624541
H  0.819230  0.005428  1.968023
H  -0.803943  0.000112  1.981458
H  -0.916123  -0.019074  -0.619444
6
step=1 t=0.050 fs active_state=2 phi=2.82 deg E_0=0.0149eV E_1=6.3059eV E_2=14.3347eV
C  0.006627  -0.008196  -0.035413
N  -0.005679  0.014171  1.351282
H  0.897956  0.005418  -0.623411
H  0.819687  0.004927  1.968466
H  -0.803785  0.000100  1.981902
H  -0.915550  -0.018822  -0.619662
6
step=2 t=0.100 fs active_state=2 phi=2.89 deg E_0=0.0176eV E_1=6.3103eV E_2=14.3389eV
C  0.006656  -0.008413  -0.035178
N  -0.005713  0.014390  1.350962
H  0.897042  0.005215  -0.622463
H  0.820240  0.004427  1.968998
H  -0.803729  0.000088  1.982442
H  -0.915129  -0.018573  -0.620049
6
step=3 t=0.150 fs active_state=2 phi=2.97 deg E_0=0.0173eV E_1=6.3096eV E_2=14.3372eV
C  0.006686  -0.008630  -0.034925
N  -0.005747  0.014609  1.350640
H  0.896281  0.005014  -0.621699
H  0.820891  0.003926  1.969619
H  -0.803776  0.000078  1.983078
H  -0.914859  -0.018328  -0.620605
6
step=4 t=0.200 fs active_state=2 phi=3.05 deg E_0=0.0137eV E_1=6.3040eV E_2=14.3289eV
C  0.006716  -0.008847  -0.034653
N  -0.005780  0.014829  1.350313
H  0.895675  0.004815  -0.621117
H  0.821638  0.003425  1.970329
H  -0.803925  0.000069  1.983810
H  -0.914740  -0.018086  -0.621331
6
step=5 t=0.250 fs active_state=2 phi=3.13 deg E_0=0.0071eV E_1=6.2935eV E_2=14.3145eV
C  0.006745  -0.009063  -0.034363
N  -0.005813  0.015048  1.349984
H  0.895223  0.004618  -0.620719
H  0.822480  0.002925  1.971127
H  -0.804175  0.000061  1.984636
H  -0.914770  -0.017847  -0.622226
6
step=6 t=0.300 fs active_state=2 phi=3.20 deg E_0=-0.0024eV E_1=6.2783eV E_2=14.2942eV
C  0.006775  -0.009279  -0.034055
N  -0.005846  0.015266  1.349651
H  0.894925  0.004423  -0.620505
H  0.823418  0.002425  1.972013
H  -0.804525  0.000055  1.985556
H  -0.914950  -0.017611  -0.623289
6
step=7 t=0.350 fs active_state=2 phi=3.28 deg E_0=-0.0146eV E_1=6.2585eV E_2=14.2678eV
C  0.006804  -0.009495  -0.033729
N  -0.005879  0.015485  1.349314
H  0.894782  0.004229  -0.620474
H  0.824450  0.001926  1.972985
H  -0.804975  0.000050  1.986569
H  -0.915278  -0.017379  -0.624520
6
step=8 t=0.400 fs active_state=2 phi=3.36 deg E_0=-0.0300eV E_1=6.2341eV E_2=14.2358eV
C  0.006833  -0.009710  -0.033384
N  -0.005912  0.015703  1.348975
H  0.894792  0.004037  -0.620626
H  0.825576  0.001426  1.974044
H  -0.805524  0.000046  1.987675
H  -0.915754  -0.017149  -0.625918
6
step=9 t=0.450 fs active_state=2 phi=3.43 deg E_0=-0.0481eV E_1=6.2056eV E_2=14.1978eV
C  0.006861  -0.009925  -0.033022
N  -0.005945  0.015921  1.348632
H  0.894957  0.003847  -0.620962
H  0.826794  0.000927  1.975189
H  -0.806169  0.000044  1.988871
H  -0.916376  -0.016922  -0.627483
6
step=10 t=0.500 fs active_state=2 phi=3.51 deg E_0=-0.0684eV E_1=6.1724eV E_2=14.1543eV
C  0.006889  -0.010140  -0.032642
N  -0.005977  0.016139  1.348287
H  0.895276  0.003658  -0.621481
H  0.828103  0.000428  1.976418
H  -0.806911  0.000044  1.990157
H  -0.917145  -0.016699  -0.629214
6
step=11 t=0.550 fs active_state=2 phi=3.58 deg E_0=-0.0911eV E_1=6.1355eV E_2=14.1052eV
C  0.006917  -0.010355  -0.032244
N  -0.006010  0.016356  1.347940
H  0.895748  0.003471  -0.622184
H  0.829502  -0.000070  1.977731
H  -0.807747  0.000045  1.991532
H  -0.918058  -0.016478  -0.631110
6
step=12 t=0.600 fs active_state=2 phi=3.66 deg E_0=-0.1160eV E_1=6.0947eV E_2=14.0508eV
C  0.006944  -0.010569  -0.031828
N  -0.006042  0.016574  1.347590
H  0.896374  0.003286  -0.623069
H  0.830990  -0.000568  1.979127
H  -0.808677  0.000048  1.992993
H  -0.919114  -0.016260  -0.633170
6
step=13 t=0.650 fs active_state=2 phi=3.74 deg E_0=-0.1426eV E_1=6.0503eV E_2=13.9910eV
C  0.006971  -0.010783  -0.031396
N  -0.006075  0.016790  1.347238
H  0.897153  0.003102  -0.624137
H  0.832567  -0.001066  1.980605
H  -0.809698  0.000053  1.994540
H  -0.920313  -0.016046  -0.635393
6
step=14 t=0.700 fs active_state=2 phi=3.81 deg E_0=-0.1711eV E_1=6.0024eV E_2=13.9263eV
C  0.006996  -0.010997  -0.030946
N  -0.006107  0.017007  1.346884
H  0.898085  0.002920  -0.625387
H  0.834230  -0.001563  1.982164
H  -0.810809  0.000059  1.996172
H  -0.921652  -0.015834  -0.637778
6
step=15 t=0.750 fs active_state=2 phi=3.89 deg E_0=-0.2009eV E_1=5.9517eV E_2=13.8564eV
C  0.007021  -0.011210  -0.030479
N  -0.006140  0.017223  1.346529
H  0.899170  0.002740  -0.626819
H  0.835979  -0.002059  1.983803
H  -0.812009  0.000068  1.997886
H  -0.923129  -0.015625  -0.640323
6
step=16 t=0.800 fs active_state=2 phi=3.96 deg E_0=-0.2319eV E_1=5.8977eV E_2=13.7822eV
C  0.007045  -0.011423  -0.029995
N  -0.006173  0.017438  1.346172
H  0.900406  0.002560  -0.628432
H  0.837813  -0.002555  1.985521
H  -0.813295  0.000078  1.999681
H  -0.924744  -0.015418  -0.643027
6
step=17 t=0.850 fs active_state=2 phi=4.04 deg E_0=-0.2637eV E_1=5.8416eV E_2=13.7039eV
C  0.007068  -0.011636  -0.029495
N  -0.006205  0.017653  1.345814
H  0.901793  0.002383  -0.630226
H  0.839731  -0.003050  1.987316
H  -0.814667  0.000091  2.001556
H  -0.926493  -0.015215  -0.645887
6
step=18 t=0.900 fs active_state=2 phi=4.11 deg E_0=-0.2964eV E_1=5.7827eV E_2=13.6208eV
C  0.007089  -0.011848  -0.028979
N  -0.006238  0.017868  1.345455
H  0.903331  0.002206  -0.632198
H  0.841732  -0.003545  1.989189
H  -0.816123  0.000106  2.003508
H  -0.928375  -0.015014  -0.648902
6
step=19 t=0.950 fs active_state=2 phi=4.18 deg E_0=-0.3291eV E_1=5.7222eV E_2=13.5342eV
C  0.007110  -0.012059  -0.028447
N  -0.006272  0.018082  1.345095
H  0.905017  0.002030  -0.634348
H  0.843814  -0.004039  1.991138
H  -0.817661  0.000123  2.005537
H  -0.930386  -0.014816  -0.652069
6
step=20 t=1.000 fs active_state=2 phi=4.26 deg E_0=-0.3621eV E_1=5.6599eV E_2=13.4441eV
C  0.007129  -0.012271  -0.027900
N  -0.006305  0.018296  1.344735
H  0.906850  0.001855  -0.636675
H  0.845978  -0.004532  1.993161
H  -0.819279  0.000143  2.007640
H  -0.932523  -0.014621  -0.655385
6
step=21 t=1.050 fs active_state=2 phi=4.33 deg E_0=-0.3948eV E_1=5.5967eV E_2=13.3508eV
C  0.007146  -0.012481  -0.027338
N  -0.006339  0.018509  1.344375
H  0.908830  0.001682  -0.639177
H  0.848223  -0.005024  1.995258
H  -0.820976  0.000164  2.009816
H  -0.934784  -0.014429  -0.658848
6
step=22 t=1.100 fs active_state=2 phi=4.40 deg E_0=-0.4265eV E_1=5.5325eV E_2=13.2549eV
C  0.007162  -0.012691  -0.026762
N  -0.006374  0.018721  1.344015
H  0.910953  0.001508  -0.641851
H  0.850546  -0.005516  1.997427
H  -0.822751  0.000189  2.012063
H  -0.937163  -0.014239  -0.662453
6
step=23 t=1.150 fs active_state=2 phi=4.48 deg E_0=-0.4578eV E_1=5.4675eV E_2=13.1565eV
C  0.007176  -0.012901  -0.026172
N  -0.006409  0.018934  1.343655
H  0.913217  0.001336  -0.644695
H  0.852950  -0.006006  1.999668
H  -0.824602  0.000216  2.014380
H  -0.939657  -0.014053  -0.666198
6
step=24 t=1.200 fs active_state=2 phi=4.55 deg E_0=-0.4873eV E_1=5.4028eV E_2=13.0564eV
C  0.007188  -0.013110  -0.025569
N  -0.006445  0.019145  1.343296
H  0.915619  0.001164  -0.647706
H  0.855431  -0.006496  2.001979
H  -0.826528  0.000246  2.016764
H  -0.942261  -0.013869  -0.670078
6
step=25 t=1.250 fs active_state=2 phi=4.62 deg E_0=-0.5159eV E_1=5.3386eV E_2=12.9553eV
C  0.007198  -0.013318  -0.024954
N  -0.006481  0.019356  1.342938
H  0.918156  0.000992  -0.650882
H  0.857991  -0.006985  2.004359
H  -0.828527  0.000278  2.019215
H  -0.944970  -0.013688  -0.674089
6
step=26 t=1.300 fs active_state=2 phi=4.69 deg E_0=-0.5422eV E_1=5.2751eV E_2=12.8533eV
C  0.007206  -0.013526  -0.024326
N  -0.006519  0.019566  1.342581
H  0.920823  0.000820  -0.654218
H  0.860630  -0.007472  2.006807
H  -0.830599  0.000314  2.021729
H  -0.947779  -0.013510  -0.678226
6
step=27 t=1.350 fs active_state=2 phi=4.76 deg E_0=-0.5667eV E_1=5.2129eV E_2=12.7512eV
C  0.007211  -0.013733  -0.023688
N  -0.006557  0.019776  1.342225
H  0.923617  0.000648  -0.657711
H  0.863345  -0.007959  2.009322
H  -0.832742  0.000352  2.024306
H  -0.950682  -0.013335  -0.682483
6
step=28 t=1.400 fs active_state=2 phi=4.83 deg E_0=-0.5889eV E_1=5.1523eV E_2=12.6494eV
C  0.007215  -0.013940  -0.023040
N  -0.006596  0.019985  1.341870
H  0.926533  0.000475  -0.661354
H  0.866139  -0.008445  2.011901
H  -0.834955  0.000393  2.026944
H  -0.953674  -0.013163  -0.686856
6
step=29 t=1.450 fs active_state=2 phi=4.90 deg E_0=-0.6086eV E_1=5.0940eV E_2=12.5488eV
C  0.007216  -0.014145  -0.022382
N  -0.006636  0.020193  1.341517
H  0.929564  0.000302  -0.665145
H  0.869010  -0.008929  2.014545
H  -0.837238  0.000438  2.029641
H  -0.956748  -0.012994  -0.691338
6
step=30 t=1.500 fs active_state=2 phi=4.97 deg E_0=-0.6255eV E_1=5.0383eV E_2=12.4495eV
C  0.007215  -0.014350  -0.021716
N  -0.006678  0.020401  1.341166
H  0.932705  0.000128  -0.669077
H  0.871959  -0.009412  2.017251
H  -0.839590  0.000485  2.032394
H  -0.959898  -0.012828  -0.695925
6
step=31 t=1.550 fs active_state=2 phi=5.04 deg E_0=-0.6396eV E_1=4.9851eV E_2=12.3523eV
C  0.007212  -0.014554  -0.021042
N  -0.006720  0.020608  1.340817
H  0.935950  -0.000046  -0.673143
H  0.874985  -0.009894  2.020017
H  -0.842010  0.000536  2.035203
H  -0.963119  -0.012665  -0.700610
6
step=32 t=1.600 fs active_state=2 phi=5.11 deg E_0=-0.6506eV E_1=4.9351eV E_2=12.2573eV
C  0.007206  -0.014758  -0.020362
N  -0.006764  0.020814  1.340470
H  0.939291  -0.000222  -0.677339
H  0.878090  -0.010375  2.022843
H  -0.844497  0.000590  2.038065
H  -0.966403  -0.012505  -0.705388
6
step=33 t=1.650 fs active_state=2 phi=5.17 deg E_0=-0.6582eV E_1=4.8887eV E_2=12.1653eV
C  0.007199  -0.014960  -0.019676
N  -0.006810  0.021019  1.340126
H  0.942720  -0.000399  -0.681657
H  0.881272  -0.010854  2.025727
H  -0.847051  0.000647  2.040979
H  -0.969745  -0.012349  -0.710252
6
step=34 t=1.700 fs active_state=2 phi=5.24 deg E_0=-0.6624eV E_1=4.8462eV E_2=12.0769eV
C  0.007190  -0.015162  -0.018985
N  -0.006856  0.021224  1.339784
H  0.946232  -0.000578  -0.686090
H  0.884532  -0.011333  2.028666
H  -0.849671  0.000708  2.043941
H  -0.973139  -0.012195  -0.715198
6
step=35 t=1.750 fs active_state=2 phi=5.31 deg E_0=-0.6633eV E_1=4.8071eV E_2=11.9915eV
C  0.007180  -0.015363  -0.018291
N  -0.006905  0.021428  1.339445
H  0.949817  -0.000759  -0.690632
H  0.887869  -0.011810  2.031658
H  -0.852357  0.000772  2.046951
H  -0.976579  -0.012045  -0.720219
6
step=36 t=1.800 fs active_state=2 phi=5.37 deg E_0=-0.6604eV E_1=4.7725eV E_2=11.9099eV
C  0.007168  -0.015562  -0.017594
N  -0.006954  0.021632  1.339109
H  0.953468  -0.000941  -0.695275
H  0.891285  -0.012285  2.034702
H  -0.855108  0.000840  2.050005
H  -0.980061  -0.011898  -0.725311
6
step=37 t=1.850 fs active_state=2 phi=5.44 deg E_0=-0.6543eV E_1=4.7417eV E_2=11.8323eV
C  0.007155  -0.015761  -0.016895
N  -0.007006  0.021834  1.338776
H  0.957177  -0.001125  -0.700013
H  0.894777  -0.012760  2.037795
H  -0.857925  0.000912  2.053102
H  -0.983580  -0.011754  -0.730469
6
step=38 t=1.900 fs active_state=2 phi=5.50 deg E_0=-0.6440eV E_1=4.7151eV E_2=11.7588eV
C  0.007141  -0.015960  -0.016195
N  -0.007059  0.022036  1.338447
H  0.960937  -0.001312  -0.704838
H  0.898347  -0.013233  2.040934
H  -0.860805  0.000986  2.056239
H  -0.987130  -0.011613  -0.735687
6
step=39 t=1.950 fs active_state=0 phi=5.56 deg E_0=-0.6306eV E_1=4.6929eV E_2=11.6892eV
C  0.007127  -0.016157  -0.015494
N  -0.007113  0.022237  1.338121
H  0.964740  -0.001501  -0.709743
H  0.901993  -0.013705  2.044117
H  -0.863750  0.001065  2.059413
H  -0.990709  -0.011475  -0.740962
6
step=40 t=2.000 fs active_state=0 phi=5.61 deg E_0=-0.5759eV E_1=4.6819eV E_2=11.6042eV
C  0.007311  -0.016190  -0.012426
N  -0.006212  0.022017  1.335011
H  0.959015  -0.001276  -0.719035
H  0.906602  -0.013961  2.047302
H  -0.871399  0.001408  2.062915
H  -0.987016  -0.010926  -0.755983
6
step=41 t=2.050 fs active_state=0 phi=5.66 deg E_0=-0.5090eV E_1=4.6799eV E_2=11.5295eV
C  0.007493  -0.016224  -0.009365
N  -0.005309  0.021797  1.331915
H  0.953318  -0.001052  -0.728325
H  0.911188  -0.014215  2.050431
H  -0.879041  0.001752  2.066365
H  -0.983319  -0.010378  -0.770982
6
step=42 t=2.100 fs active_state=0 phi=5.71 deg E_0=-0.4297eV E_1=4.6873eV E_2=11.4656eV
C  0.007671  -0.016257  -0.006314
N  -0.004404  0.021578  1.328833
H  0.947649  -0.000829  -0.737611
H  0.915749  -0.014467  2.053501
H  -0.886670  0.002097  2.069761
H  -0.979616  -0.009831  -0.785957
6
step=43 t=2.150 fs active_state=0 phi=5.76 deg E_0=-0.3386eV E_1=4.7036eV E_2=11.4119eV
C  0.007845  -0.016290  -0.003274
N  -0.003500  0.021358  1.325767
H  0.942008  -0.000607  -0.746890
H  0.920282  -0.014715  2.056510
H  -0.894281  0.002444  2.073100
H  -0.975903  -0.009286  -0.800901
6
step=44 t=2.200 fs active_state=0 phi=5.81 deg E_0=-0.2363eV E_1=4.7295eV E_2=11.3691eV
C  0.008015  -0.016324  -0.000247
N  -0.002594  0.021138  1.322720
H  0.936396  -0.000386  -0.756160
H  0.924785  -0.014961  2.059458
H  -0.901870  0.002793  2.076379
H  -0.972178  -0.008742  -0.815809
6
step=45 t=2.250 fs active_state=0 phi=5.86 deg E_0=-0.1233eV E_1=4.7651eV E_2=11.3376eV
C  0.008181  -0.016357  0.002764
N  -0.001688  0.020918  1.319690
H  0.930813  -0.000166  -0.765416
H  0.929257  -0.015203  2.062342
H  -0.909434  0.003143  2.079597
H  -0.968439  -0.008200  -0.830676
6
step=46 t=2.300 fs active_state=0 phi=5.91 deg E_0=-0.0005eV E_1=4.8108eV E_2=11.3169eV
C  0.008343  -0.016390  0.005758
N  -0.000782  0.020697  1.316678
H  0.925258  0.000053  -0.774657
H  0.933696  -0.015442  2.065162
H  -0.916969  0.003496  2.082750
H  -0.964683  -0.007659  -0.845496
6
step=47 t=2.350 fs active_state=0 phi=5.96 deg E_0=0.1316eV E_1=4.8669eV E_2=11.3071eV
C  0.008500  -0.016423  0.008733
N  0.000125  0.020477  1.313683
H  0.919732  0.000271  -0.783880
H  0.938101  -0.015677  2.067916
H  -0.924472  0.003850  2.085839
H  -0.960910  -0.007120  -0.860265
6
step=48 t=2.400 fs active_state=0 phi=6.01 deg E_0=0.2734eV E_1=4.9338eV E_2=11.3071eV
C  0.008653  -0.016457  0.011688
N  0.001032  0.020256  1.310707
H  0.914235  0.000487  -0.793081
H  0.942469  -0.015909  2.070602
H  -0.931941  0.004207  2.088860
H  -0.957117  -0.006584  -0.874976
6
step=49 t=2.450 fs active_state=0 phi=6.06 deg E_0=0.4243eV E_1=5.0120eV E_2=11.3169eV
C  0.008802  -0.016490  0.014622
N  0.001938  0.020036  1.307748
H  0.908767  0.000701  -0.802258
H  0.946800  -0.016137  2.073219
H  -0.939373  0.004566  2.091813
H  -0.953303  -0.006050  -0.889624
6
step=50 t=2.500 fs active_state=0 phi=6.11 deg E_0=0.5842eV E_1=5.1006eV E_2=11.3354eV
C  0.008946  -0.016522  0.017536
N  0.002844  0.019815  1.304807
H  0.903329  0.000913  -0.811407
H  0.951092  -0.016361  2.075765
H  -0.946765  0.004927  2.094696
H  -0.949467  -0.005518  -0.904203
6
step=51 t=2.550 fs active_state=0 phi=6.16 deg E_0=0.7532eV E_1=5.2009eV E_2=11.3625eV
C  0.009086  -0.016555  0.020429
N  0.003751  0.019594  1.301883
H  0.897920  0.001124  -0.820526
H  0.955344  -0.016582  2.078240
H  -0.954115  0.005291  2.097507
H  -0.945607  -0.004988  -0.918708
6
step=52 t=2.600 fs active_state=0 phi=6.20 deg E_0=0.9319eV E_1=5.3120eV E_2=11.3970eV
C  0.009220  -0.016588  0.023302
N  0.004656  0.019373  1.298978
H  0.892541  0.001332  -0.829610
H  0.959553  -0.016799  2.080641
H  -0.961420  0.005657  2.100245
H  -0.941722  -0.004462  -0.933133
6
step=53 t=2.650 fs active_state=0 phi=6.25 deg E_0=1.1196eV E_1=5.4336eV E_2=11.4382eV
C  0.009351  -0.016620  0.026155
N  0.005561  0.019152  1.296090
H  0.887191  0.001538  -0.838655
H  0.963719  -0.017012  2.082967
H  -0.968676  0.006026  2.102907
H  -0.937811  -0.003938  -0.947470
6
step=54 t=2.700 fs active_state=0 phi=6.30 deg E_0=1.3174eV E_1=5.5659eV E_2=11.4854eV
C  0.009476  -0.016652  0.028987
N  0.006465  0.018930  1.293219
H  0.881870  0.001742  -0.847659
H  0.967839  -0.017221  2.085218
H  -0.975880  0.006396  2.105492
H  -0.933873  -0.003417  -0.961714
6
step=55 t=2.750 fs active_state=0 phi=6.35 deg E_0=1.5249eV E_1=5.7080eV E_2=11.5381eV
C  0.009597  -0.016684  0.031799
N  0.007368  0.018709  1.290367
H  0.876578  0.001943  -0.856616
H  0.971913  -0.017426  2.087391
H  -0.983030  0.006769  2.107998
H  -0.929906  -0.002900  -0.975858
6
step=56 t=2.800 fs active_state=0 phi=6.40 deg E_0=1.7422eV E_1=5.8601eV E_2=11.5952eV
C  0.009712  -0.016716  0.034590
N  0.008270  0.018487  1.287532
H  0.871316  0.002142  -0.865521
H  0.975938  -0.017627  2.089485
H  -0.990123  0.007145  2.110423
H  -0.925910  -0.002386  -0.989896
6
step=57 t=2.850 fs active_state=0 phi=6.45 deg E_0=1.9688eV E_1=6.0210eV E_2=11.6567eV
C  0.009823  -0.016748  0.037362
N  0.009171  0.018266  1.284714
H  0.866083  0.002338  -0.874372
H  0.979915  -0.017825  2.091499
H  -0.997155  0.007523  2.112767
H  -0.921883  -0.001875  -1.003820
6
step=58 t=2.900 fs active_state=0 phi=6.49 deg E_0=2.2048eV E_1=6.1904eV E_2=11.7224eV
C  0.009930  -0.016779  0.040112
N  0.010070  0.018044  1.281915
H  0.860879  0.002531  -0.883161
H  0.983840  -0.018018  2.093433
H  -1.004124  0.007903  2.115028
H  -0.917824  -0.001368  -1.017624
6
step=59 t=2.950 fs active_state=0 phi=6.54 deg E_0=2.4500eV E_1=6.3679eV E_2=11.7915eV
C  0.010031  -0.016811  0.042843
N  0.010967  0.017822  1.279133
H  0.855704  0.002722  -0.891886
H  0.987714  -0.018208  2.095285
H  -1.011027  0.008285  2.117205
H  -0.913734  -0.000864  -1.031301
6
step=60 t=3.000 fs active_state=0 phi=6.59 deg E_0=2.7034eV E_1=6.5530eV E_2=11.8638eV
C  0.010128  -0.016842  0.045553
N  0.011863  0.017601  1.276368
H  0.850559  0.002909  -0.900540
H  0.991536  -0.018393  2.097054
H  -1.017862  0.008669  2.119297
H  -0.909613  -0.000365  -1.044846
6
step=61 t=3.050 fs active_state=0 phi=6.64 deg E_0=2.9641eV E_1=6.7451eV E_2=11.9395eV
C  0.010220  -0.016873  0.048243
N  0.012757  0.017379  1.273622
H  0.845443  0.003093  -0.909120
H  0.995304  -0.018575  2.098741
H  -1.024628  0.009056  2.121304
H  -0.905459  0.000131  -1.058252
6
step=62 t=3.100 fs active_state=0 phi=6.68 deg E_0=3.2322eV E_1=6.9434eV E_2=12.0181eV
C  0.010307  -0.016904  0.050912
N  0.013649  0.017158  1.270892
H  0.840357  0.003274  -0.917622
H  0.999020  -0.018753  2.100345
H  -1.031321  0.009444  2.123225
H  -0.901273  0.000623  -1.071514
6
step=63 t=3.150 fs active_state=0 phi=6.73 deg E_0=3.5059eV E_1=7.1477eV E_2=12.0996eV
C  0.010390  -0.016935  0.053562
N  0.014538  0.016937  1.268181
H  0.835302  0.003452  -0.926040
H  1.002681  -0.018928  2.101865
H  -1.037941  0.009835  2.125060
H  -0.897056  0.001110  -1.084629
6
step=64 t=3.200 fs active_state=0 phi=6.77 deg E_0=3.7847eV E_1=7.3574eV E_2=12.1843eV
C  0.010468  -0.016966  0.056191
N  0.015425  0.016716  1.265487
H  0.830276  0.003627  -0.934372
H  1.006289  -0.019098  2.103302
H  -1.044486  0.010227  2.126809
H  -0.892809  0.001594  -1.097591
6
step=65 t=3.250 fs active_state=0 phi=6.82 deg E_0=4.0676eV E_1=7.5718eV E_2=12.2717eV
C  0.010542  -0.016997  0.058800
N  0.016310  0.016495  1.262811
H  0.825281  0.003798  -0.942613
H  1.009844  -0.019266  2.104656
H  -1.050954  0.010622  2.128472
H  -0.888532  0.002073  -1.110398
6
step=66 t=3.300 fs active_state=0 phi=6.86 deg E_0=4.3540eV E_1=7.7908eV E_2=12.3623eV
C  0.010611  -0.017028  0.061388
N  0.017191  0.016274  1.260152
H  0.820317  0.003966  -0.950762
H  1.013346  -0.019429  2.105927
H  -1.057345  0.011018  2.130049
H  -0.884227  0.002549  -1.123047
6
step=67 t=3.350 fs active_state=0 phi=6.91 deg E_0=4.6423eV E_1=8.0139eV E_2=12.4551eV
C  0.010677  -0.017059  0.063956
N  0.018071  0.016054  1.257511
H  0.815384  0.004130  -0.958816
H  1.016795  -0.019589  2.107115
H  -1.063658  0.011416  2.131540
H  -0.879895  0.003019  -1.135537
6
step=68 t=3.400 fs active_state=0 phi=6.95 deg E_0=4.9324eV E_1=8.2402eV E_2=12.5503eV
C  0.010738  -0.017090  0.066504
N  0.018947  0.015834  1.254887
H  0.810481  0.004292  -0.966771
H  1.020193  -0.019746  2.108221
H  -1.069892  0.011815  2.132945
H  -0.875538  0.003486  -1.147867
6
step=69 t=3.450 fs active_state=0 phi=6.99 deg E_0=5.2229eV E_1=8.4697eV E_2=12.6479eV
C  0.010796  -0.017122  0.069032
N  0.019820  0.015614  1.252281
H  0.805610  0.004450  -0.974628
H  1.023541  -0.019900  2.109246
H  -1.076045  0.012216  2.134265
H  -0.871159  0.003949  -1.160038
6
step=70 t=3.500 fs active_state=0 phi=7.03 deg E_0=5.5134eV E_1=8.7019eV E_2=12.7478eV
C  0.010850  -0.017153  0.071540
N  0.020689  0.015395  1.249693
H  0.800769  0.004604  -0.982384
H  1.026839  -0.020050  2.110190
H  -1.082118  0.012618  2.135499
H  -0.866759  0.004407  -1.172049
6
step=71 t=3.550 fs active_state=0 phi=7.08 deg E_0=5.8032eV E_1=8.9363eV E_2=12.8496eV
C  0.010901  -0.017185  0.074027
N  0.021556  0.015177  1.247122
H  0.795959  0.004756  -0.990038
H  1.030089  -0.020197  2.111055
H  -1.088108  0.013022  2.136647
H  -0.862341  0.004862  -1.183903
6
step=72 t=3.600 fs active_state=0 phi=7.12 deg E_0=6.0913eV E_1=9.1721eV E_2=12.9529eV
C  0.010948  -0.017217  0.076494
N  0.022418  0.014959  1.244568
H  0.791180  0.004904  -0.997590
H  1.033291  -0.020342  2.111840
H  -1.094016  0.013427  2.137710
H  -0.857907  0.005312  -1.195603
6
step=73 t=3.650 fs active_state=0 phi=7.16 deg E_0=6.3774eV E_1=9.4094eV E_2=13.0576eV
C  0.010993  -0.017249  0.078941
N  0.023277  0.014742  1.242032
H  0.786432  0.005049  -1.005040
H  1.036449  -0.020484  2.112547
H  -1.099841  0.013834  2.138687
H  -0.853459  0.005759  -1.207150
6
step=74 t=3.700 fs active_state=0 phi=7.20 deg E_0=6.6614eV E_1=9.6475eV E_2=13.1633eV
C  0.011035  -0.017282  0.081368
N  0.024132  0.014525  1.239514
H  0.781713  0.005191  -1.012388
H  1.039562  -0.020622  2.113178
H  -1.105582  0.014241  2.139579
H  -0.849001  0.006201  -1.218549
6
step=75 t=3.750 fs active_state=0 phi=7.24 deg E_0=6.9421eV E_1=9.8855eV E_2=13.2703eV
C  0.011075  -0.017315  0.083775
N  0.024983  0.014309  1.237013
H  0.777025  0.005330  -1.019633
H  1.042632  -0.020759  2.113732
H  -1.111238  0.014650  2.140386
H  -0.844534  0.006640  -1.229803
6
step=76 t=3.800 fs active_state=0 phi=7.28 deg E_0=7.2197eV E_1=10.1238eV E_2=13.3779eV
C  0.011113  -0.017349  0.086161
N  0.025830  0.014094  1.234530
H  0.772366  0.005466  -1.026776
H  1.045661  -0.020893  2.114211
H  -1.116810  0.015060  2.141108
H  -0.840063  0.007075  -1.240916
6
step=77 t=3.850 fs active_state=0 phi=7.32 deg E_0=7.4939eV E_1=10.3611eV E_2=13.4856eV
C  0.011149  -0.017383  0.088528
N  0.026672  0.013879  1.232064
H  0.767736  0.005599  -1.033819
H  1.048651  -0.021024  2.114617
H  -1.122296  0.015470  2.141745
H  -0.835588  0.007507  -1.251894
6
step=78 t=3.900 fs active_state=0 phi=7.36 deg E_0=7.7639eV E_1=10.5977eV E_2=13.5938eV
C  0.011183  -0.017418  0.090874
N  0.027510  0.013666  1.229615
H  0.763135  0.005729  -1.040761
H  1.051602  -0.021154  2.114950
H  -1.127697  0.015882  2.142297
H  -0.831114  0.007936  -1.262742
6
step=79 t=3.950 fs active_state=0 phi=7.40 deg E_0=8.0298eV E_1=10.8325eV E_2=13.7019eV
C  0.011217  -0.017454  0.093200
N  0.028344  0.013453  1.227184
H  0.758563  0.005856  -1.047603
H  1.054517  -0.021281  2.115211
H  -1.133012  0.016294  2.142766
H  -0.826643  0.008361  -1.273464
6
step=80 t=4.000 fs active_state=0 phi=7.44 deg E_0=8.2915eV E_1=11.0654eV E_2=13.8098eV
C  0.011248  -0.017490  0.095506
N  0.029172  0.013241  1.224771
H  0.754019  0.005980  -1.054347
H  1.057397  -0.021406  2.115401
H  -1.138241  0.016707  2.143150
H  -0.822177  0.008783  -1.284067
6
step=81 t=4.050 fs active_state=0 phi=7.48 deg E_0=8.5483eV E_1=11.2961eV E_2=13.9172eV
C  0.011280  -0.017527  0.097792
N  0.029996  0.013031  1.222375
H  0.749503  0.006102  -1.060994
H  1.060244  -0.021530  2.115522
H  -1.143384  0.017120  2.143450
H  -0.817720  0.009202  -1.294555
6
step=82 t=4.100 fs active_state=0 phi=7.51 deg E_0=8.8005eV E_1=11.5239eV E_2=14.0239eV
C  0.011310  -0.017565  0.100058
N  0.030815  0.012821  1.219996
H  0.745016  0.006221  -1.067545
H  1.063058  -0.021651  2.115575
H  -1.148443  0.017534  2.143668
H  -0.813274  0.009618  -1.304935
6
step=83 t=4.150 fs active_state=0 phi=7.55 deg E_0=9.0481eV E_1=11.7483eV E_2=14.1301eV
C  0.011340  -0.017604  0.102304
N  0.031630  0.012612  1.217635
H  0.740555  0.006337  -1.074001
H  1.065842  -0.021771  2.115560
H  -1.153416  0.017948  2.143803
H  -0.808842  0.010032  -1.315213
6
step=84 t=4.200 fs active_state=0 phi=7.59 deg E_0=9.2898eV E_1=11.9690eV E_2=14.2349eV
C  0.011370  -0.017644  0.104530
N  0.032439  0.012405  1.215291
H  0.736123  0.006451  -1.080364
H  1.068597  -0.021890  2.115479
H  -1.158305  0.018363  2.143857
H  -0.804427  0.010443  -1.325394
6
step=85 t=4.250 fs active_state=0 phi=7.63 deg E_0=9.5269eV E_1=12.1858eV E_2=14.3386eV
C  0.011400  -0.017684  0.106735
N  0.033243  0.012198  1.212964
H  0.731718  0.006563  -1.086634
H  1.071324  -0.022007  2.115333
H  -1.163111  0.018778  2.143830
H  -0.800030  0.010852  -1.335484
6
step=86 t=4.300 fs active_state=0 phi=7.66 deg E_0=9.7581eV E_1=12.3982eV E_2=14.4412eV
C  0.011430  -0.017726  0.108921
N  0.034043  0.011993  1.210655
H  0.727341  0.006672  -1.092814
H  1.074025  -0.022123  2.115123
H  -1.167834  0.019193  2.143723
H  -0.795655  0.011259  -1.345490
6
step=87 t=4.350 fs active_state=0 phi=7.70 deg E_0=9.9839eV E_1=12.6060eV E_2=14.5420eV
C  0.011460  -0.017768  0.111087
N  0.034837  0.011789  1.208364
H  0.722991  0.006779  -1.098904
H  1.076701  -0.022237  2.114849
H  -1.172476  0.019608  2.143537
H  -0.791304  0.011663  -1.355417
6
step=88 t=4.400 fs active_state=0 phi=7.74 deg E_0=10.2041eV E_1=12.8086eV E_2=14.6409eV
C  0.011491  -0.017812  0.113232
N  0.035627  0.011586  1.206090
H  0.718669  0.006884  -1.104907
H  1.079354  -0.022351  2.114513
H  -1.177037  0.020023  2.143273
H  -0.786980  0.012066  -1.365270
6
step=89 t=4.450 fs active_state=0 phi=7.78 deg E_0=10.4185eV E_1=13.0061eV E_2=14.7383eV
C  0.011522  -0.017857  0.115358
N  0.036411  0.011384  1.203833
H  0.714376  0.006987  -1.110823
H  1.081985  -0.022463  2.114116
H  -1.181519  0.020438  2.142933
H  -0.782684  0.012467  -1.375055
6
step=90 t=4.500 fs active_state=0 phi=7.81 deg E_0=10.6272eV E_1=13.1978eV E_2=14.8335eV
C  0.011554  -0.017903  0.117463
N  0.037191  0.011183  1.201593
H  0.710110  0.007088  -1.116655
H  1.084594  -0.022575  2.113658
H  -1.185923  0.020853  2.142516
H  -0.778418  0.012866  -1.384778
6
step=91 t=4.550 fs active_state=0 phi=7.85 deg E_0=10.8301eV E_1=13.3840eV E_2=14.9265eV
C  0.011587  -0.017950  0.119549
N  0.037966  0.010984  1.199371
H  0.705873  0.007187  -1.122404
H  1.087184  -0.022686  2.113139
H  -1.190251  0.021267  2.142025
H  -0.774185  0.013264  -1.394444
6
step=92 t=4.600 fs active_state=0 phi=7.89 deg E_0=11.0271eV E_1=13.5642eV E_2=15.0173eV
C  0.011621  -0.017998  0.121614
N  0.038736  0.010786  1.197166
H  0.701665  0.007284  -1.128071
H  1.089755  -0.022796  2.112562
H  -1.194504  0.021682  2.141461
H  -0.769986  0.013661  -1.404058
6
step=93 t=4.650 fs active_state=0 phi=7.92 deg E_0=11.2180eV E_1=13.7388eV E_2=15.1057eV
C  0.011656  -0.018047  0.123660
N  0.039501  0.010590  1.194979
H  0.697486  0.007379  -1.133658
H  1.092309  -0.022905  2.111927
H  -1.198684  0.022096  2.140826
H  -0.765824  0.014056  -1.413625
6
step=94 t=4.700 fs active_state=0 phi=7.96 deg E_0=11.4031eV E_1=13.9067eV E_2=15.1917eV
C  0.011692  -0.018098  0.125686
N  0.040262  0.010395  1.192809
H  0.693337  0.007472  -1.139167
H  1.094847  -0.023014  2.111233
H  -1.202793  0.022510  2.140119
H  -0.761699  0.014451  -1.423150
6
step=95 t=4.750 fs active_state=0 phi=8.00 deg E_0=11.5823eV E_1=14.0686eV E_2=15.2749eV
C  0.011729  -0.018150  0.127691
N  0.041018  0.010201  1.190656
H  0.689218  0.007564  -1.144599
H  1.097369  -0.023123  2.110483
H  -1.206832  0.022923  2.139344
H  -0.757614  0.014844  -1.432637
6
step=96 t=4.800 fs active_state=0 phi=8.03 deg E_0=11.7554eV E_1=14.2239eV E_2=15.3560eV
C  0.011767  -0.018203  0.129677
N  0.041770  0.010008  1.188520
H  0.685129  0.007655  -1.149957
H  1.099878  -0.023231  2.109675
H  -1.210804  0.023336  2.138500
H  -0.753569  0.015237  -1.442090
6
step=97 t=4.850 fs active_state=0 phi=8.07 deg E_0=11.9229eV E_1=14.3733eV E_2=15.4338eV
C  0.011807  -0.018258  0.131643
N  0.042517  0.009817  1.186402
H  0.681072  0.007743  -1.155241
H  1.102373  -0.023339  2.108812
H  -1.214709  0.023748  2.137590
H  -0.749567  0.015629  -1.451513
6
step=98 t=4.900 fs active_state=0 phi=8.11 deg E_0=12.0842eV E_1=14.5161eV E_2=15.5090eV
C  0.011848  -0.018313  0.133589
N  0.043260  0.009627  1.184301
H  0.677046  0.007831  -1.160453
H  1.104856  -0.023446  2.107894
H  -1.218550  0.024160  2.136615
H  -0.745608  0.016020  -1.460911
6
step=99 t=4.950 fs active_state=0 phi=8.15 deg E_0=12.2395eV E_1=14.6528eV E_2=15.5818eV
C  0.011890  -0.018370  0.135515
N  0.043999  0.009439  1.182218
H  0.673054  0.007917  -1.165595
H  1.107328  -0.023554  2.106920
H  -1.222329  0.024571  2.135576
H  -0.741693  0.016412  -1.470287
6
step=100 t=5.000 fs active_state=0 phi=8.18 deg E_0=12.3892eV E_1=14.7834eV E_2=15.6516eV
C  0.011933  -0.018429  0.137421
N  0.044733  0.009252  1.180151
H  0.669094  0.008002  -1.170668
H  1.109790  -0.023662  2.105893
H  -1.226047  0.024982  2.134475
H  -0.737824  0.016802  -1.479644
6
step=101 t=5.050 fs active_state=0 phi=8.22 deg E_0=12.5334eV E_1=14.9080eV E_2=15.7185eV
C  0.011978  -0.018488  0.139307
N  0.045463  0.009066  1.178102
H  0.665168  0.008086  -1.175675
H  1.112243  -0.023769  2.104811
H  -1.229707  0.025392  2.133313
H  -0.734002  0.017193  -1.488985
6
step=102 t=5.100 fs active_state=0 phi=8.26 deg E_0=12.6716eV E_1=15.0266eV E_2=15.7830eV
C  0.012025  -0.018549  0.141173
N  0.046190  0.008881  1.176070
H  0.661276  0.008168  -1.180617
H  1.114688  -0.023877  2.103675
H  -1.233310  0.025801  2.132091
H  -0.730226  0.017583  -1.498315
6
step=103 t=5.150 fs active_state=0 phi=8.29 deg E_0=12.8044eV E_1=15.1392eV E_2=15.8445eV
C  0.012073  -0.018611  0.143020
N  0.046912  0.008698  1.174056
H  0.657420  0.008250  -1.185496
H  1.117126  -0.023985  2.102487
H  -1.236858  0.026210  2.130811
H  -0.726499  0.017974  -1.507634
6
step=104 t=5.200 fs active_state=0 phi=8.33 deg E_0=12.9314eV E_1=15.2463eV E_2=15.9036eV
C  0.012122  -0.018675  0.144846
N  0.047630  0.008517  1.172058
H  0.653600  0.008330  -1.190313
H  1.119558  -0.024093  2.101246
H  -1.240352  0.026617  2.129474
H  -0.722820  0.018364  -1.516947
6
step=105 t=5.250 fs active_state=0 phi=8.37 deg E_0=13.0532eV E_1=15.3479eV E_2=15.9600eV
C  0.012172  -0.018740  0.146653
N  0.048344  0.008336  1.170078
H  0.649817  0.008410  -1.195070
H  1.121984  -0.024201  2.099952
H  -1.243796  0.027024  2.128081
H  -0.719191  0.018755  -1.526255
6
step=106 t=5.300 fs active_state=0 phi=8.41 deg E_0=13.1694eV E_1=15.4441eV E_2=16.0137eV
C  0.012224  -0.018806  0.148440
N  0.049054  0.008157  1.168115
H  0.646071  0.008488  -1.199770
H  1.124406  -0.024310  2.098607
H  -1.247189  0.027431  2.126634
H  -0.715612  0.019146  -1.535561
6
step=107 t=5.350 fs active_state=0 phi=8.45 deg E_0=13.2805eV E_1=15.5352eV E_2=16.0652eV
C  0.012278  -0.018873  0.150207
N  0.049760  0.007979  1.166170
H  0.642364  0.008566  -1.204413
H  1.126825  -0.024420  2.097210
H  -1.250535  0.027836  2.125133
H  -0.712083  0.019537  -1.544868
6
step=108 t=5.400 fs active_state=0 phi=8.48 deg E_0=13.3862eV E_1=15.6211eV E_2=16.1140eV
C  0.012333  -0.018942  0.151954
N  0.050462  0.007803  1.164241
H  0.638695  0.008644  -1.209001
H  1.129240  -0.024529  2.095763
H  -1.253834  0.028241  2.123581
H  -0.708605  0.019928  -1.554176
6
step=109 t=5.450 fs active_state=0 phi=8.52 deg E_0=13.4868eV E_1=15.7026eV E_2=16.1606eV
C  0.012389  -0.019012  0.153682
N  0.051161  0.007628  1.162330
H  0.635067  0.008720  -1.213538
H  1.131655  -0.024640  2.094264
H  -1.257089  0.028644  2.121978
H  -0.705178  0.020321  -1.563489
6
step=110 t=5.500 fs active_state=0 phi=8.56 deg E_0=13.5820eV E_1=15.7793eV E_2=16.2051eV
C  0.012447  -0.019083  0.155389
N  0.051856  0.007454  1.160436
H  0.631479  0.008796  -1.218023
H  1.134068  -0.024751  2.092715
H  -1.260301  0.029047  2.120325
H  -0.701803  0.020713  -1.572809
6
step=111 t=5.550 fs active_state=0 phi=8.60 deg E_0=13.6724eV E_1=15.8516eV E_2=16.2473eV
C  0.012506  -0.019156  0.157077
N  0.052547  0.007282  1.158559
H  0.627932  0.008871  -1.222460
H  1.136482  -0.024863  2.091116
H  -1.263472  0.029449  2.118624
H  -0.698479  0.021107  -1.582136
6
step=112 t=5.600 fs active_state=0 phi=8.64 deg E_0=13.7581eV E_1=15.9199eV E_2=16.2874eV
C  0.012567  -0.019230  0.158745
N  0.053234  0.007110  1.156699
H  0.624427  0.008946  -1.226850
H  1.138896  -0.024976  2.089468
H  -1.266603  0.029850  2.116876
H  -0.695207  0.021501  -1.591473
6
step=113 t=5.650 fs active_state=0 phi=8.67 deg E_0=13.8386eV E_1=15.9839eV E_2=16.3257eV
C  0.012629  -0.019305  0.160393
N  0.053917  0.006940  1.154857
H  0.620964  0.009021  -1.231196
H  1.141313  -0.025089  2.087770
H  -1.269696  0.030250  2.115082
H  -0.691988  0.021896  -1.600821
6
step=114 t=5.700 fs active_state=0 phi=8.71 deg E_0=13.9146eV E_1=16.0442eV E_2=16.3616eV
C  0.012693  -0.019381  0.162022
N  0.054597  0.006772  1.153031
H  0.617545  0.009095  -1.235499
H  1.143731  -0.025204  2.086023
H  -1.272752  0.030649  2.113243
H  -0.688820  0.022292  -1.610183
6
step=115 t=5.750 fs active_state=0 phi=8.75 deg E_0=13.9858eV E_1=16.1008eV E_2=16.3958eV
C  0.012758  -0.019459  0.163631
N  0.055273  0.006604  1.151223
H  0.614169  0.009169  -1.239761
H  1.146153  -0.025319  2.084227
H  -1.275773  0.031047  2.111360
H  -0.685704  0.022689  -1.619559
6
step=116 t=5.800 fs active_state=0 phi=8.79 deg E_0=14.0525eV E_1=16.1538eV E_2=16.4282eV
C  0.012824  -0.019537  0.165220
N  0.055946  0.006438  1.149432
H  0.610838  0.009243  -1.243984
H  1.148580  -0.025435  2.082383
H  -1.278761  0.031445  2.109434
H  -0.682640  0.023087  -1.628951
6
step=117 t=5.850 fs active_state=0 phi=8.83 deg E_0=14.1145eV E_1=16.2034eV E_2=16.4587eV
C  0.012892  -0.019617  0.166789
N  0.056614  0.006273  1.147658
H  0.607551  0.009316  -1.248170
H  1.151011  -0.025553  2.080491
H  -1.281716  0.031841  2.107467
H  -0.679628  0.023486  -1.638361
6
step=118 t=5.900 fs active_state=0 phi=8.87 deg E_0=14.1721eV E_1=16.2500eV E_2=16.4878eV
C  0.012961  -0.019699  0.168339
N  0.057279  0.006109  1.145901
H  0.604309  0.009389  -1.252322
H  1.153447  -0.025672  2.078551
H  -1.284640  0.032236  2.105459
H  -0.676668  0.023886  -1.647790
6
step=119 t=5.950 fs active_state=0 phi=8.91 deg E_0=14.2253eV E_1=16.2932eV E_2=16.5151eV
C  0.013032  -0.019781  0.169868
N  0.057940  0.005946  1.144161
H  0.601113  0.009463  -1.256441
H  1.155890  -0.025791  2.076564
H  -1.287535  0.032631  2.103411
H  -0.673759  0.024287  -1.657240
6
step=120 t=6.000 fs active_state=0 phi=8.95 deg E_0=14.2744eV E_1=16.3335eV E_2=16.5410eV
C  0.013104  -0.019865  0.171378
N  0.058598  0.005785  1.142438
H  0.597962  0.009536  -1.260529
H  1.158340  -0.025912  2.074529
H  -1.290401  0.033024  2.101325
H  -0.670901  0.024690  -1.666712
6
step=121 t=6.050 fs active_state=0 phi=8.99 deg E_0=14.3191eV E_1=16.3711eV E_2=16.5652eV
C  0.013178  -0.019949  0.172869
N  0.059251  0.005624  1.140733
H  0.594857  0.009610  -1.264589
H  1.160797  -0.026034  2.072448
H  -1.293241  0.033417  2.099201
H  -0.668095  0.025094  -1.676208
6
step=122 t=6.100 fs active_state=0 phi=9.03 deg E_0=14.3599eV E_1=16.4060eV E_2=16.5879eV
C  0.013253  -0.020035  0.174340
N  0.059902  0.005465  1.139044
H  0.591797  0.009683  -1.268622
H  1.163263  -0.026158  2.070320
H  -1.296055  0.033809  2.097040
H  -0.665338  0.025499  -1.685728
6
step=123 t=6.150 fs active_state=0 phi=9.06 deg E_0=14.3960eV E_1=16.4382eV E_2=16.6094eV
C  0.013330  -0.020122  0.175791
N  0.060548  0.005307  1.137373
H  0.588784  0.009757  -1.272630
H  1.165737  -0.026283  2.068145
H  -1.298845  0.034199  2.094844
H  -0.662632  0.025906  -1.695276
6
step=124 t=6.200 fs active_state=0 phi=9.10 deg E_0=14.4290eV E_1=16.4678eV E_2=16.6294eV
C  0.013408  -0.020211  0.177222
N  0.061191  0.005150  1.135719
H  0.585817  0.009831  -1.276615
H  1.168220  -0.026409  2.065924
H  -1.301611  0.034589  2.092612
H  -0.659976  0.026314  -1.704851
6
step=125 t=6.250 fs active_state=0 phi=9.14 deg E_0=14.4573eV E_1=16.4951eV E_2=16.6484eV
C  0.013488  -0.020300  0.178634
N  0.061830  0.004994  1.134081
H  0.582896  0.009906  -1.280579
H  1.170713  -0.026536  2.063657
H  -1.304355  0.034978  2.090347
H  -0.657369  0.026724  -1.714456
6
step=126 t=6.300 fs active_state=0 phi=9.18 deg E_0=14.4824eV E_1=16.5198eV E_2=16.6660eV
C  0.013569  -0.020391  0.180028
N  0.062465  0.004839  1.132461
H  0.580022  0.009981  -1.284524
H  1.173216  -0.026665  2.061345
H  -1.307078  0.035366  2.088049
H  -0.654812  0.027135  -1.724093
6
step=127 t=6.350 fs active_state=0 phi=9.22 deg E_0=14.5034eV E_1=16.5425eV E_2=16.6824eV
C  0.013652  -0.020482  0.181404
N  0.063097  0.004685  1.130858
H  0.577193  0.010056  -1.288451
H  1.175730  -0.026796  2.058986
H  -1.309782  0.035753  2.085719
H  -0.652302  0.027548  -1.733761
6
step=128 t=6.400 fs active_state=0 phi=9.26 deg E_0=14.5212eV E_1=16.5627eV E_2=16.6975eV
C  0.013737  -0.020575  0.182766
N  0.063725  0.004532  1.129272
H  0.574409  0.010132  -1.292363
H  1.178255  -0.026928  2.056582
H  -1.312466  0.036140  2.083358
H  -0.649840  0.027963  -1.743464
6
step=129 t=6.450 fs active_state=0 phi=9.30 deg E_0=14.5356eV E_1=16.5811eV E_2=16.7119eV
C  0.013823  -0.020669  0.184113
N  0.064349  0.004381  1.127702
H  0.571672  0.010208  -1.296260
H  1.180790  -0.027061  2.054132
H  -1.315133  0.036525  2.080966
H  -0.647426  0.028380  -1.753202
6
step=130 t=6.500 fs active_state=0 phi=9.34 deg E_0=14.5466eV E_1=16.5974eV E_2=16.7251eV
C  0.013911  -0.020764  0.185448
N  0.064970  0.004230  1.126150
H  0.568979  0.010285  -1.300144
H  1.183337  -0.027196  2.051637
H  -1.317784  0.036909  2.078545
H  -0.645058  0.028798  -1.762976
6
step=131 t=6.550 fs active_state=0 phi=9.38 deg E_0=14.5542eV E_1=16.6118eV E_2=16.7373eV
C  0.014000  -0.020860  0.186771
N  0.065587  0.004080  1.124615
H  0.566331  0.010363  -1.304017
H  1.185896  -0.027333  2.049096
H  -1.320418  0.037293  2.076095
H  -0.642737  0.029218  -1.772788
6
step=132 t=6.600 fs active_state=0 phi=9.42 deg E_0=14.5588eV E_1=16.6243eV E_2=16.7485eV
C  0.014091  -0.020956  0.188084
N  0.066200  0.003931  1.123097
H  0.563728  0.010441  -1.307880
H  1.188467  -0.027471  2.046511
H  -1.323038  0.037676  2.073618
H  -0.640460  0.029639  -1.782639
6
step=133 t=6.650 fs active_state=0 phi=9.46 deg E_0=14.5608eV E_1=16.6348eV E_2=16.7588eV
C  0.014184  -0.021054  0.189388
N  0.066810  0.003783  1.121595
H  0.561169  0.010520  -1.311734
H  1.191050  -0.027611  2.043880
H  -1.325643  0.038058  2.071113
H  -0.638229  0.030063  -1.792530
6
step=134 t=6.700 fs active_state=0 phi=9.50 deg E_0=14.5598eV E_1=16.6438eV E_2=16.7683eV
C  0.014278  -0.021153  0.190685
N  0.067417  0.003636  1.120107
H  0.558654  0.010599  -1.315581
H  1.193644  -0.027752  2.041204
H  -1.328236  0.038439  2.068582
H  -0.636041  0.030488  -1.802462
6
step=135 t=6.750 fs active_state=0 phi=9.55 deg E_0=14.5559eV E_1=16.6511eV E_2=16.7771eV
C  0.014374  -0.021253  0.191975
N  0.068020  0.003490  1.118634
H  0.556182  0.010680  -1.319421
H  1.196251  -0.027895  2.038482
H  -1.330817  0.038819  2.066025
H  -0.633896  0.030915  -1.812436
6
step=136 t=6.800 fs active_state=0 phi=9.59 deg E_0=14.5498eV E_1=16.6567eV E_2=16.7849eV
C  0.014472  -0.021354  0.193259
N  0.068619  0.003345  1.117174
H  0.553753  0.010761  -1.323256
H  1.198870  -0.028040  2.035716
H  -1.333386  0.039198  2.063444
H  -0.631794  0.031344  -1.822452
6
step=137 t=6.850 fs active_state=0 phi=9.63 deg E_0=14.5415eV E_1=16.6609eV E_2=16.7920eV
C  0.014572  -0.021456  0.194539
N  0.069215  0.003201  1.115727
H  0.551366  0.010843  -1.327086
H  1.201500  -0.028186  2.032904
H  -1.335945  0.039577  2.060838
H  -0.629733  0.031775  -1.832510
6
step=138 t=6.900 fs active_state=0 phi=9.67 deg E_0=14.5310eV E_1=16.6636eV E_2=16.7983eV
C  0.014673  -0.021558  0.195816
N  0.069807  0.003057  1.114290
H  0.549020  0.010927  -1.330912
H  1.204143  -0.028334  2.030046
H  -1.338494  0.039955  2.058210
H  -0.627713  0.032207  -1.842612
6
step=139 t=6.950 fs active_state=0 phi=9.71 deg E_0=14.5186eV E_1=16.6650eV E_2=16.8037eV
C  0.014776  -0.021662  0.197090
N  0.070396  0.002915  1.112865
H  0.546716  0.011011  -1.334735
H  1.206798  -0.028483  2.027144
H  -1.341034  0.040332  2.055558
H  -0.625733  0.032642  -1.852757
6
step=140 t=7.000 fs active_state=0 phi=9.75 deg E_0=14.5039eV E_1=16.6648eV E_2=16.8088eV
C  0.014881  -0.021766  0.198363
N  0.070981  0.002773  1.111449
H  0.544452  0.011096  -1.338555
H  1.209464  -0.028635  2.024196
H  -1.343567  0.040709  2.052885
H  -0.623791  0.033078  -1.862945
6
step=141 t=7.050 fs active_state=0 phi=9.79 deg E_0=14.4880eV E_1=16.6638eV E_2=16.8130eV
C  0.014988  -0.021871  0.199636
N  0.071563  0.002632  1.110042
H  0.542229  0.011181  -1.342373
H  1.212142  -0.028787  2.021202
H  -1.346091  0.041084  2.050190
H  -0.621888  0.033516  -1.873175
6
step=142 t=7.100 fs active_state=0 phi=9.84 deg E_0=14.4705eV E_1=16.6614eV E_2=16.8164eV
C  0.015097  -0.021977  0.200909
N  0.072142  0.002491  1.108643
H  0.540045  0.011268  -1.346189
H  1.214830  -0.028942  2.018162
H  -1.348609  0.041460  2.047474
H  -0.620021  0.033955  -1.883449
6
step=143 t=7.150 fs active_state=0 phi=9.88 deg E_0=14.4517eV E_1=16.6580eV E_2=16.8193eV
C  0.015207  -0.022084  0.202183
N  0.072718  0.002352  1.107251
H  0.537900  0.011356  -1.350004
H  1.217530  -0.029098  2.015077
H  -1.351120  0.041834  2.044739
H  -0.618190  0.034396  -1.893763
6
step=144 t=7.200 fs active_state=0 phi=9.92 deg E_0=14.4314eV E_1=16.6531eV E_2=16.8213eV
C  0.015320  -0.022191  0.203460
N  0.073290  0.002213  1.105866
H  0.535793  0.011445  -1.353818
H  1.220240  -0.029256  2.011945
H  -1.353626  0.042208  2.041984
H  -0.616394  0.034839  -1.904119
6
step=145 t=7.250 fs active_state=0 phi=9.96 deg E_0=14.4102eV E_1=16.6477eV E_2=16.8228eV
C  0.015434  -0.022299  0.204739
N  0.073858  0.002074  1.104487
H  0.533724  0.011535  -1.357631
H  1.222961  -0.029416  2.008767
H  -1.356127  0.042581  2.039210
H  -0.614631  0.035284  -1.914515
6
step=146 t=7.300 fs active_state=0 phi=10.01 deg E_0=14.3882eV E_1=16.6411eV E_2=16.8237eV
C  0.015550  -0.022408  0.206022
N  0.074424  0.001937  1.103113
H  0.531692  0.011627  -1.361443
H  1.225691  -0.029577  2.005543
H  -1.358624  0.042953  2.036418
H  -0.612902  0.035730  -1.924949
6
step=147 t=7.350 fs active_state=0 phi=10.05 deg E_0=14.3652eV E_1=16.6338eV E_2=16.8240eV
C  0.015668  -0.022518  0.207310
N  0.074986  0.001800  1.101744
H  0.529697  0.011719  -1.365254
H  1.228431  -0.029740  2.002272
H  -1.361117  0.043325  2.033608
H  -0.611204  0.036177  -1.935421
6
step=148 t=7.400 fs active_state=0 phi=10.09 deg E_0=14.3418eV E_1=16.6255eV E_2=16.8235eV
C  0.015787  -0.022628  0.208602
N  0.075545  0.001663  1.100378
H  0.527738  0.011812  -1.369064
H  1.231180  -0.029904  1.998955
H  -1.363607  0.043696  2.030782
H  -0.609537  0.036626  -1.945929
6
step=149 t=7.450 fs active_state=0 phi=10.14 deg E_0=14.3176eV E_1=16.6165eV E_2=16.8223eV
C  0.015909  -0.022739  0.209900
N  0.076101  0.001527  1.099015
H  0.525815  0.011906  -1.372874
H  1.233937  -0.030070  1.995590
H  -1.366094  0.044066  2.027938
H  -0.607899  0.037076  -1.956472
6
step=150 t=7.500 fs active_state=0 phi=10.18 deg E_0=14.2930eV E_1=16.6064eV E_2=16.8206eV
C  0.016032  -0.022850  0.211203
N  0.076654  0.001392  1.097655
H  0.523928  0.012002  -1.376682
H  1.236703  -0.030238  1.992179
H  -1.368578  0.044436  2.025079
H  -0.606290  0.037527  -1.967047
6
step=151 t=7.550 fs active_state=0 phi=10.22 deg E_0=14.2681eV E_1=16.5957eV E_2=16.8179eV
C  0.016158  -0.022962  0.212514
N  0.077204  0.001258  1.096297
H  0.522075  0.012099  -1.380489
H  1.239475  -0.030407  1.988720
H  -1.371062  0.044806  2.022204
H  -0.604709  0.037980  -1.977654
6
step=152 t=7.600 fs active_state=0 phi=10.27 deg E_0=14.2427eV E_1=16.5845eV E_2=16.8147eV
C  0.016285  -0.023074  0.213831
N  0.077751  0.001123  1.094940
H  0.520256  0.012196  -1.384294
H  1.242255  -0.030578  1.985213
H  -1.373543  0.045175  2.019314
H  -0.603155  0.038434  -1.988290
6
step=153 t=7.650 fs active_state=0 phi=10.31 deg E_0=14.2173eV E_1=16.5723eV E_2=16.8110eV
C  0.016414  -0.023187  0.215157
N  0.078295  0.000990  1.093583
H  0.518472  0.012295  -1.388098
H  1.245041  -0.030751  1.981658
H  -1.376025  0.045543  2.016409
H  -0.601627  0.038889  -1.998953
6
step=154 t=7.700 fs active_state=0 phi=10.36 deg E_0=14.1914eV E_1=16.5593eV E_2=16.8066eV
C  0.016544  -0.023301  0.216490
N  0.078835  0.000857  1.092226
H  0.516721  0.012395  -1.391899
H  1.247833  -0.030925  1.978056
H  -1.378505  0.045911  2.013490
H  -0.600123  0.039345  -2.009643
6
step=155 t=7.750 fs active_state=0 phi=10.40 deg E_0=14.1655eV E_1=16.5459eV E_2=16.8015eV
C  0.016677  -0.023415  0.217832
N  0.079373  0.000724  1.090869
H  0.515003  0.012496  -1.395698
H  1.250630  -0.031100  1.974404
H  -1.380986  0.046278  2.010558
H  -0.598644  0.039801  -2.020357
6
step=156 t=7.800 fs active_state=0 phi=10.44 deg E_0=14.1394eV E_1=16.5317eV E_2=16.7957eV
C  0.016812  -0.023529  0.219183
N  0.079908  0.000592  1.089511
H  0.513319  0.012598  -1.399495
H  1.253431  -0.031277  1.970705
H  -1.383468  0.046645  2.007612
H  -0.597187  0.040259  -2.031092
6
step=157 t=7.850 fs active_state=0 phi=10.49 deg E_0=14.1130eV E_1=16.5168eV E_2=16.7891eV
C  0.016948  -0.023644  0.220543
N  0.080441  0.000460  1.088152
H  0.511667  0.012702  -1.403288
H  1.256236  -0.031456  1.966956
H  -1.385950  0.047012  2.004654
H  -0.595754  0.040718  -2.041849
6
step=158 t=7.900 fs active_state=0 phi=10.53 deg E_0=14.0864eV E_1=16.5010eV E_2=16.7820eV
C  0.017086  -0.023759  0.221914
N  0.080970  0.000329  1.086790
H  0.510047  0.012806  -1.407079
H  1.259044  -0.031636  1.963159
H  -1.388433  0.047378  2.001684
H  -0.594342  0.041177  -2.052625
6
step=159 t=7.950 fs active_state=0 phi=10.58 deg E_0=14.0596eV E_1=16.4849eV E_2=16.7739eV
C  0.017226  -0.023875  0.223294
N  0.081497  0.000198  1.085425
H  0.508460  0.012912  -1.410866
H  1.261854  -0.031817  1.959311
H  -1.390918  0.047743  1.998701
H  -0.592952  0.041637  -2.063418
6
step=160 t=8.000 fs active_state=0 phi=10.62 deg E_0=14.0327eV E_1=16.4675eV E_2=16.7656eV
C  0.017368  -0.023991  0.224686
N  0.082021  0.000068  1.084058
H  0.506904  0.013019  -1.414648
H  1.264666  -0.032000  1.955415
H  -1.393405  0.048109  1.995707
H  -0.591582  0.042098  -2.074227
6
step=161 t=8.050 fs active_state=0 phi=10.67 deg E_0=14.0051eV E_1=16.4497eV E_2=16.7561eV
C  0.017512  -0.024107  0.226088
N  0.082542  -0.000062  1.082687
H  0.505381  0.013127  -1.418427
H  1.267479  -0.032184  1.951468
H  -1.395895  0.048473  1.992702
H  -0.590233  0.042560  -2.085052
6
step=162 t=8.100 fs active_state=0 phi=10.72 deg E_0=13.9775eV E_1=16.4312eV E_2=16.7463eV
C  0.017658  -0.024224  0.227502
N  0.083061  -0.000192  1.081312
H  0.503888  0.013236  -1.422201
H  1.270292  -0.032370  1.947471
H  -1.398387  0.048838  1.989686
H  -0.588903  0.043022  -2.095890
6
step=163 t=8.150 fs active_state=0 phi=10.76 deg E_0=13.9495eV E_1=16.4119eV E_2=16.7356eV
C  0.017805  -0.024341  0.228928
N  0.083577  -0.000322  1.079933
H  0.502428  0.013346  -1.425970
H  1.273103  -0.032557  1.943424
H  -1.400882  0.049202  1.986660
H  -0.587592  0.043485  -2.106740
6
step=164 t=8.200 fs active_state=0 phi=10.81 deg E_0=13.9209eV E_1=16.3914eV E_2=16.7246eV
C  0.017955  -0.024458  0.230366
N  0.084090  -0.000451  1.078548
H  0.500998  0.013457  -1.429733
H  1.275913  -0.032745  1.939326
H  -1.403380  0.049566  1.983624
H  -0.586300  0.043948  -2.117602
6
step=165 t=8.250 fs active_state=0 phi=10.85 deg E_0=13.8918eV E_1=16.3706eV E_2=16.7124eV
C  0.018106  -0.024576  0.231817
N  0.084601  -0.000579  1.077159
H  0.499600  0.013570  -1.433492
H  1.278721  -0.032935  1.935177
H  -1.405881  0.049929  1.980578
H  -0.585027  0.044412  -2.128475
6
step=166 t=8.300 fs active_state=0 phi=10.90 deg E_0=13.8623eV E_1=16.3484eV E_2=16.6997eV
C  0.018260  -0.024693  0.233281
N  0.085110  -0.000708  1.075763
H  0.498233  0.013683  -1.437244
H  1.281525  -0.033126  1.930976
H  -1.408387  0.050292  1.977523
H  -0.583772  0.044876  -2.139358
6
step=167 t=8.350 fs active_state=0 phi=10.94 deg E_0=13.8320eV E_1=16.3254eV E_2=16.6865eV
C  0.018415  -0.024811  0.234758
N  0.085617  -0.000836  1.074362
H  0.496897  0.013798  -1.440991
H  1.284325  -0.033318  1.926724
H  -1.410896  0.050655  1.974459
H  -0.582535  0.045340  -2.150250
6
step=168 t=8.400 fs active_state=0 phi=10.99 deg E_0=13.8013eV E_1=16.3015eV E_2=16.6724eV
C  0.018573  -0.024930  0.236249
N  0.086121  -0.000964  1.072954
H  0.495592  0.013914  -1.444731
H  1.287119  -0.033511  1.922420
H  -1.413410  0.051018  1.971386
H  -0.581316  0.045806  -2.161151
6
step=169 t=8.450 fs active_state=0 phi=11.03 deg E_0=13.7695eV E_1=16.2766eV E_2=16.6577eV
C  0.018732  -0.025048  0.237755
N  0.086622  -0.001092  1.071539
H  0.494318  0.014031  -1.448465
H  1.289907  -0.033705  1.918064
H  -1.415928  0.051380  1.968305
H  -0.580115  0.046271  -2.172061
6
step=170 t=8.500 fs active_state=0 phi=11.08 deg E_0=13.7373eV E_1=16.2507eV E_2=16.6421eV
C  0.018894  -0.025167  0.239275
N  0.087122  -0.001219  1.070117
H  0.493074  0.014149  -1.452192
H  1.292688  -0.033901  1.913655
H  -1.418451  0.051742  1.965216
H  -0.578931  0.046737  -2.182980
6
step=171 t=8.550 fs active_state=0 phi=11.13 deg E_0=13.7041eV E_1=16.2236eV E_2=16.6260eV
C  0.019058  -0.025286  0.240811
N  0.087620  -0.001346  1.068687
H  0.491861  0.014269  -1.455912
H  1.295460  -0.034097  1.909193
H  -1.420979  0.052104  1.962119
H  -0.577764  0.047204  -2.193906
6
step=172 t=8.600 fs active_state=0 phi=11.17 deg E_0=13.6699eV E_1=16.1953eV E_2=16.6089eV
C  0.019224  -0.025405  0.242361
N  0.088115  -0.001473  1.067249
H  0.490679  0.014389  -1.459625
H  1.298224  -0.034295  1.904679
H  -1.423512  0.052466  1.959014
H  -0.576615  0.047670  -2.204840
6
step=173 t=8.650 fs active_state=0 phi=11.22 deg E_0=13.6350eV E_1=16.1663eV E_2=16.5911eV
C  0.019392  -0.025524  0.243928
N  0.088609  -0.001600  1.065802
H  0.489528  0.014511  -1.463331
H  1.300977  -0.034493  1.900110
H  -1.426050  0.052827  1.955903
H  -0.575483  0.048138  -2.215782
6
step=174 t=8.700 fs active_state=0 phi=11.26 deg E_0=13.5991eV E_1=16.1355eV E_2=16.5725eV
C  0.019562  -0.025643  0.245511
N  0.089100  -0.001726  1.064347
H  0.488408  0.014634  -1.467030
H  1.303718  -0.034693  1.895488
H  -1.428594  0.053188  1.952784
H  -0.574368  0.048605  -2.226732
6
step=175 t=8.750 fs active_state=0 phi=11.31 deg E_0=13.5620eV E_1=16.1038eV E_2=16.5530eV
C  0.019734  -0.025763  0.247111
N  0.089590  -0.001853  1.062883
H  0.487318  0.014758  -1.470721
H  1.306447  -0.034893  1.890812
H  -1.431143  0.053549  1.949659
H  -0.573270  0.049073  -2.237690
6
step=176 t=8.800 fs active_state=0 phi=11.36 deg E_0=13.5239eV E_1=16.0708eV E_2=16.5327eV
C  0.019909  -0.025882  0.248728
N  0.090078  -0.001979  1.061409
H  0.486258  0.014883  -1.474405
H  1.309163  -0.035095  1.886082
H  -1.433699  0.053910  1.946527
H  -0.572190  0.049542  -2.248655
6
step=177 t=8.850 fs active_state=0 phi=11.40 deg E_0=13.4849eV E_1=16.0361eV E_2=16.5117eV
C  0.020086  -0.026002  0.250363
N  0.090564  -0.002105  1.059926
H  0.485229  0.015009  -1.478082
H  1.311863  -0.035297  1.881296
H  -1.436260  0.054271  1.943389
H  -0.571126  0.050011  -2.259629
6
step=178 t=8.900 fs active_state=0 phi=11.45 deg E_0=13.4448eV E_1=16.0005eV E_2=16.4895eV
C  0.020265  -0.026122  0.252015
N  0.091048  -0.002231  1.058432
H  0.484231  0.015137  -1.481750
H  1.314548  -0.035500  1.876456
H  -1.438827  0.054631  1.940244
H  -0.570079  0.050480  -2.270611
6
step=179 t=8.950 fs active_state=0 phi=11.49 deg E_0=13.4036eV E_1=15.9631eV E_2=16.4663eV
C  0.020447  -0.026241  0.253686
N  0.091531  -0.002357  1.056928
H  0.483263  0.015265  -1.485412
H  1.317216  -0.035704  1.871561
H  -1.441400  0.054992  1.937094
H  -0.569050  0.050950  -2.281601
6
step=180 t=9.000 fs active_state=0 phi=11.54 deg E_0=13.3611eV E_1=15.9246eV E_2=16.4421eV
C  0.020631  -0.026361  0.255375
N  0.092012  -0.002483  1.055412
H  0.482325  0.015395  -1.489065
H  1.319866  -0.035908  1.866609
H  -1.443980  0.055352  1.933938
H  -0.568037  0.051420  -2.292599
6
step=181 t=9.050 fs active_state=0 phi=11.59 deg E_0=13.3176eV E_1=15.8843eV E_2=16.4175eV
C  0.020818  -0.026481  0.257082
N  0.092491  -0.002609  1.053886
H  0.481418  0.015526  -1.492712
H  1.322497  -0.036114  1.861602
H  -1.446566  0.055712  1.930776
H  -0.567042  0.051890  -2.303606
6
step=182 t=9.100 fs active_state=0 phi=11.63 deg E_0=13.2727eV E_1=15.8425eV E_2=16.3911eV
C  0.021007  -0.026601  0.258808
N  0.092969  -0.002735  1.052348
H  0.480541  0.015658  -1.496350
H  1.325107  -0.036319  1.856538
H  -1.449158  0.056072  1.927609
H  -0.566063  0.052361  -2.314621
6
step=183 t=9.150 fs active_state=0 phi=11.68 deg E_0=13.2263eV E_1=15.7996eV E_2=16.3640eV
C  0.021199  -0.026721  0.260551
N  0.093446  -0.002860  1.050798
H  0.479694  0.015791  -1.499982
H  1.327696  -0.036526  1.851418
H  -1.451757  0.056432  1.924436
H  -0.565101  0.052832  -2.325645
6
step=184 t=9.200 fs active_state=0 phi=11.72 deg E_0=13.1790eV E_1=15.7546eV E_2=16.3359eV
C  0.021393  -0.026841  0.262313
N  0.093921  -0.002986  1.049235
H  0.478877  0.015926  -1.503605
H  1.330261  -0.036733  1.846241
H  -1.454362  0.056792  1.921258
H  -0.564155  0.053304  -2.336677
6
step=185 t=9.250 fs active_state=0 phi=11.77 deg E_0=13.1306eV E_1=15.7085eV E_2=16.3066eV
C  0.021590  -0.026961  0.264093
N  0.094395  -0.003112  1.047660
H  0.478089  0.016061  -1.507222
H  1.332803  -0.036940  1.841007
H  -1.456973  0.057152  1.918075
H  -0.563226  0.053776  -2.347719
6
step=186 t=9.300 fs active_state=0 phi=11.81 deg E_0=13.0803eV E_1=15.6606eV E_2=16.2761eV
C  0.021789  -0.027081  0.265890
N  0.094867  -0.003237  1.046072
H  0.477332  0.016198  -1.510832
H  1.335319  -0.037148  1.835715
H  -1.459591  0.057512  1.914886
H  -0.562314  0.054249  -2.358769
6
step=187 t=9.350 fs active_state=0 phi=11.86 deg E_0=13.0291eV E_1=15.6113eV E_2=16.2446eV
C  0.021992  -0.027201  0.267706
N  0.095338  -0.003363  1.044470
H  0.476603  0.016335  -1.514435
H  1.337809  -0.037357  1.830365
H  -1.462215  0.057871  1.911693
H  -0.561418  0.054722  -2.369828
6
step=188 t=9.400 fs active_state=0 phi=11.90 deg E_0=12.9766eV E_1=15.5601eV E_2=16.2122eV
C  0.022197  -0.027321  0.269540
N  0.095809  -0.003489  1.042855
H  0.475904  0.016474  -1.518031
H  1.340271  -0.037566  1.824957
H  -1.464845  0.058231  1.908494
H  -0.560538  0.055195  -2.380896
6
step=189 t=9.450 fs active_state=0 phi=11.95 deg E_0=12.9221eV E_1=15.5076eV E_2=16.1782eV
C  0.022405  -0.027440  0.271392
N  0.096277  -0.003615  1.041225
H  0.475234  0.016614  -1.521621
H  1.342704  -0.037775  1.819490
H  -1.467481  0.058590  1.905290
H  -0.559675  0.055669  -2.391973
6
step=190 t=9.500 fs active_state=0 phi=11.99 deg E_0=12.8667eV E_1=15.4534eV E_2=16.1433eV
C  0.022616  -0.027560  0.273263
N  0.096745  -0.003741  1.039581
H  0.474593  0.016756  -1.525204
H  1.345108  -0.037984  1.813965
H  -1.470124  0.058950  1.902081
H  -0.558827  0.056143  -2.403059
6
step=191 t=9.550 fs active_state=0 phi=12.04 deg E_0=12.8096eV E_1=15.3977eV E_2=16.1074eV
C  0.022830  -0.027679  0.275151
N  0.097212  -0.003867  1.037922
H  0.473980  0.016898  -1.528781
H  1.347479  -0.038194  1.808381
H  -1.472771  0.059309  1.898867
H  -0.557995  0.056618  -2.414154
6
step=192 t=9.600 fs active_state=0 phi=12.08 deg E_0=12.7512eV E_1=15.3401eV E_2=16.0703eV
C  0.023047  -0.027798  0.277057
N  0.097677  -0.003993  1.036248
H  0.473395  0.017041  -1.532353
H  1.349818  -0.038404  1.802738
H  -1.475425  0.059668  1.895647
H  -0.557178  0.057093  -2.425258
6
step=193 t=9.650 fs active_state=0 phi=12.13 deg E_0=12.6912eV E_1=15.2815eV E_2=16.0320eV
C  0.023267  -0.027917  0.278981
N  0.098141  -0.004120  1.034558
H  0.472838  0.017185  -1.535918
H  1.352123  -0.038614  1.797035
H  -1.478083  0.060027  1.892422
H  -0.556377  0.057568  -2.436370
6
step=194 t=9.700 fs active_state=0 phi=12.17 deg E_0=12.6296eV E_1=15.2209eV E_2=15.9927eV
C  0.023491  -0.028036  0.280924
N  0.098604  -0.004246  1.032852
H  0.472309  0.017331  -1.539479
H  1.354393  -0.038824  1.791272
H  -1.480747  0.060386  1.889192
H  -0.555591  0.058044  -2.447492
6
step=195 t=9.750 fs active_state=0 phi=12.22 deg E_0=12.5667eV E_1=15.1594eV E_2=15.9526eV
C  0.023718  -0.028155  0.282884
N  0.099066  -0.004373  1.031131
H  0.471806  0.017478  -1.543035
H  1.356627  -0.039035  1.785449
H  -1.483416  0.060745  1.885956
H  -0.554819  0.058520  -2.458621
6
step=196 t=9.800 fs active_state=0 phi=12.26 deg E_0=12.5020eV E_1=15.0962eV E_2=15.9116eV
C  0.023948  -0.028273  0.284863
N  0.099528  -0.004500  1.029395
H  0.471330  0.017625  -1.546586
H  1.358823  -0.039245  1.779565
H  -1.486089  0.061104  1.882714
H  -0.554062  0.058997  -2.469760
6
step=197 t=9.850 fs active_state=0 phi=12.30 deg E_0=12.4358eV E_1=15.0317eV E_2=15.8696eV
C  0.024182  -0.028391  0.286859
N  0.099987  -0.004627  1.027643
H  0.470881  0.017774  -1.550132
H  1.360979  -0.039456  1.773621
H  -1.488766  0.061462  1.879466
H  -0.553320  0.059473  -2.480906
6
step=198 t=9.900 fs active_state=0 phi=12.35 deg E_0=12.3682eV E_1=14.9661eV E_2=15.8269eV
C  0.024419  -0.028509  0.288874
N  0.100446  -0.004755  1.025876
H  0.470457  0.017924  -1.553675
H  1.363096  -0.039666  1.767617
H  -1.491446  0.061821  1.876212
H  -0.552592  0.059951  -2.492061
6
step=199 t=9.950 fs active_state=0 phi=12.39 deg E_0=12.2988eV E_1=14.8992eV E_2=15.7834eV
C  0.024660  -0.028626  0.290906
N  0.100904  -0.004883  1.024093
H  0.470059  0.018075  -1.557213
H  1.365171  -0.039876  1.761551
H  -1.494130  0.062179  1.872951
H  -0.551877  0.060428  -2.503224
6
step=200 t=10.000 fs active_state=0 phi=12.43 deg E_0=12.2278eV E_1=14.8311eV E_2=15.7393eV
C  0.024905  -0.028744  0.292957
N  0.101361  -0.005011  1.022295
H  0.469686  0.018226  -1.560748
H  1.367204  -0.040087  1.755424
H  -1.496817  0.062537  1.869684
H  -0.551176  0.060906  -2.514395
6
step=201 t=10.050 fs active_state=0 phi=12.47 deg E_0=12.1553eV E_1=14.7620eV E_2=15.6951eV
C  0.025154  -0.028860  0.295025
N  0.101816  -0.005140  1.020482
H  0.469337  0.018379  -1.564280
H  1.369193  -0.040297  1.749235
H  -1.499506  0.062895  1.866410
H  -0.550488  0.061384  -2.525574
6
step=202 t=10.100 fs active_state=0 phi=12.52 deg E_0=12.0815eV E_1=14.6921eV E_2=15.6501eV
C  0.025407  -0.028976  0.297111
N  0.102271  -0.005268  1.018653
H  0.469011  0.018533  -1.567810
H  1.371136  -0.040507  1.742985
H  -1.502197  0.063253  1.863129
H  -0.549813  0.061863  -2.536760
6
step=203 t=10.150 fs active_state=0 phi=12.56 deg E_0=12.0061eV E_1=14.6216eV E_2=15.6050eV
C  0.025664  -0.029092  0.299216
N  0.102724  -0.005398  1.016809
H  0.468709  0.018688  -1.571336
H  1.373032  -0.040716  1.736673
H  -1.504889  0.063610  1.859840
H  -0.549150  0.062342  -2.547953
6
step=204 t=10.200 fs active_state=0 phi=12.60 deg E_0=11.9292eV E_1=14.5500eV E_2=15.5598eV
C  0.025925  -0.029208  0.301338
N  0.103176  -0.005527  1.014950
H  0.468430  0.018844  -1.574860
H  1.374881  -0.040926  1.730299
H  -1.507581  0.063967  1.856544
H  -0.548500  0.062821  -2.559154
6
step=205 t=10.250 fs active_state=0 phi=12.64 deg E_0=11.8508eV E_1=14.4780eV E_2=15.5149eV
C  0.026190  -0.029322  0.303478
N  0.103627  -0.005658  1.013075
H  0.468173  0.019000  -1.578383
H  1.376680  -0.041135  1.723862
H  -1.510274  0.064324  1.853239
H  -0.547862  0.063300  -2.570361
6
step=206 t=10.300 fs active_state=0 phi=12.68 deg E_0=11.7710eV E_1=14.4058eV E_2=15.4700eV
C  0.026459  -0.029437  0.305636
N  0.104077  -0.005788  1.011184
H  0.467938  0.019158  -1.581903
H  1.378429  -0.041343  1.717364
H  -1.512966  0.064681  1.849926
H  -0.547235  0.063780  -2.581575
6
step=207 t=10.350 fs active_state=0 phi=12.73 deg E_0=11.6899eV E_1=14.3328eV E_2=15.4255eV
C  0.026733  -0.029550  0.307812
N  0.104526  -0.005919  1.009279
H  0.467724  0.019317  -1.585422
H  1.380125  -0.041552  1.710803
H  -1.515656  0.065037  1.846604
H  -0.546620  0.064260  -2.592796
6
step=208 t=10.400 fs active_state=0 phi=12.77 deg E_0=11.6077eV E_1=14.2595eV E_2=15.3816eV
C  0.027012  -0.029664  0.310006
N  0.104973  -0.006051  1.007358
H  0.467530  0.019476  -1.588940
H  1.381769  -0.041759  1.704179
H  -1.518345  0.065392  1.843273
H  -0.546015  0.064740  -2.604023
6
step=209 t=10.450 fs active_state=0 phi=12.81 deg E_0=11.5239eV E_1=14.1865eV E_2=15.3389eV
C  0.027295  -0.029776  0.312218
N  0.105420  -0.006183  1.005422
H  0.467356  0.019636  -1.592457
H  1.383357  -0.041967  1.697493
H  -1.521030  0.065748  1.839932
H  -0.545421  0.065221  -2.615255
6
step=210 t=10.500 fs active_state=0 phi=12.85 deg E_0=11.4390eV E_1=14.1130eV E_2=15.2966eV
C  0.027583  -0.029888  0.314448
N  0.105865  -0.006315  1.003470
H  0.467201  0.019798  -1.595973
H  1.384889  -0.042173  1.690744
H  -1.523712  0.066102  1.836581
H  -0.544838  0.065702  -2.626494
6
step=211 t=10.550 fs active_state=0 phi=12.89 deg E_0=11.3530eV E_1=14.0400eV E_2=15.2556eV
C  0.027876  -0.029999  0.316696
N  0.106308  -0.006449  1.001503
H  0.467065  0.019960  -1.599488
H  1.386364  -0.042380  1.683932
H  -1.526389  0.066457  1.833221
H  -0.544265  0.066182  -2.637738
6
step=212 t=10.600 fs active_state=0 phi=12.93 deg E_0=11.2664eV E_1=13.9670eV E_2=15.2163eV
C  0.028173  -0.030110  0.318961
N  0.106751  -0.006582  0.999521
H  0.466947  0.020122  -1.603002
H  1.387780  -0.042585  1.677057
H  -1.529062  0.066810  1.829849
H  -0.543702  0.066664  -2.648987
6
step=213 t=10.650 fs active_state=0 phi=12.97 deg E_0=11.1782eV E_1=13.8940eV E_2=15.1782eV
C  0.028476  -0.030220  0.321245
N  0.107192  -0.006717  0.997523
H  0.466847  0.020286  -1.606516
H  1.389135  -0.042790  1.670120
H  -1.531728  0.067164  1.826466
H  -0.543148  0.067145  -2.660241
6
step=214 t=10.700 fs active_state=0 phi=13.00 deg E_0=11.0896eV E_1=13.8218eV E_2=15.1418eV
C  0.028783  -0.030329  0.323546
N  0.107633  -0.006852  0.995511
H  0.466763  0.020450  -1.610030
H  1.390428  -0.042994  1.663119
H  -1.534387  0.067516  1.823072
H  -0.542603  0.067626  -2.671500
6
step=215 t=10.750 fs active_state=0 phi=13.04 deg E_0=11.0000eV E_1=13.7498eV E_2=15.1074eV
C  0.029096  -0.030438  0.325865
N  0.108072  -0.006987  0.993482
H  0.466696  0.020616  -1.613544
H  1.391657  -0.043197  1.656056
H  -1.537039  0.067868  1.819666
H  -0.542067  0.068108  -2.682764
6
step=216 t=10.800 fs active_state=0 phi=13.08 deg E_0=10.9097eV E_1=13.6782eV E_2=15.0750eV
C  0.029414  -0.030546  0.328202
N  0.108509  -0.007123  0.991439
H  0.466645  0.020781  -1.617057
H  1.392821  -0.043400  1.648930
H  -1.539682  0.068219  1.816247
H  -0.541540  0.068590  -2.694032
6
step=217 t=10.850 fs active_state=0 phi=13.12 deg E_0=10.8188eV E_1=13.6074eV E_2=15.0447eV
C  0.029737  -0.030653  0.330557
N  0.108946  -0.007260  0.989380
H  0.466608  0.020948  -1.620570
H  1.393919  -0.043601  1.641740
H  -1.542316  0.068570  1.812816
H  -0.541022  0.069072  -2.705304
6
step=218 t=10.900 fs active_state=0 phi=13.16 deg E_0=10.7275eV E_1=13.5371eV E_2=15.0168eV
C  0.030065  -0.030759  0.332930
N  0.109382  -0.007398  0.987306
H  0.466586  0.021115  -1.624083
H  1.394948  -0.043802  1.634488
H  -1.544939  0.068919  1.809372
H  -0.540511  0.069554  -2.716581
6
step=219 t=10.950 fs active_state=0 phi=13.20 deg E_0=10.6357eV E_1=13.4673eV E_2=14.9915eV
C  0.030399  -0.030864  0.335320
N  0.109816  -0.007536  0.985217
H  0.466578  0.021283  -1.627596
H  1.395907  -0.044001  1.627173
H  -1.547551  0.069268  1.805915
H  -0.540008  0.070037  -2.727860
6
step=220 t=11.000 fs active_state=0 phi=13.23 deg E_0=10.5439eV E_1=13.3984eV E_2=14.9685eV
C  0.030738  -0.030969  0.337729
N  0.110250  -0.007675  0.983113
H  0.466583  0.021452  -1.631108
H  1.396794  -0.044200  1.619796
H  -1.550152  0.069616  1.802444
H  -0.539513  0.070519  -2.739143
6
step=221 t=11.050 fs active_state=0 phi=13.27 deg E_0=10.4517eV E_1=13.3301eV E_2=14.9480eV
C  0.031082  -0.031073  0.340155
N  0.110683  -0.007814  0.980993
H  0.466600  0.021621  -1.634620
H  1.397608  -0.044397  1.612355
H  -1.552739  0.069963  1.798958
H  -0.539025  0.071002  -2.750430
6
step=222 t=11.100 fs active_state=0 phi=13.31 deg E_0=10.3594eV E_1=13.2627eV E_2=14.9299eV
C  0.031432  -0.031176  0.342599
N  0.111114  -0.007954  0.978858
H  0.466630  0.021791  -1.638132
H  1.398346  -0.044593  1.604852
H  -1.555313  0.070310  1.795459
H  -0.538545  0.071485  -2.761719
6
step=223 t=11.150 fs active_state=0 phi=13.34 deg E_0=10.2671eV E_1=13.1958eV E_2=14.9146eV
C  0.031787  -0.031278  0.345060
N  0.111546  -0.008095  0.976708
H  0.466671  0.021961  -1.641643
H  1.399007  -0.044788  1.597286
H  -1.557873  0.070655  1.791945
H  -0.538071  0.071967  -2.773011
6
step=224 t=11.200 fs active_state=0 phi=13.38 deg E_0=10.1750eV E_1=13.1301eV E_2=14.9019eV
C  0.032147  -0.031379  0.347540
N  0.111976  -0.008237  0.974543
H  0.466723  0.022132  -1.645154
H  1.399590  -0.044981  1.589657
H  -1.560418  0.070999  1.788415
H  -0.537603  0.072450  -2.784305
6
step=225 t=11.250 fs active_state=0 phi=13.41 deg E_0=10.0833eV E_1=13.0649eV E_2=14.8916eV
C  0.032513  -0.031480  0.350037
N  0.112406  -0.008379  0.972362
H  0.466785  0.022303  -1.648664
H  1.400092  -0.045173  1.581965
H  -1.562946  0.071342  1.784871
H  -0.537142  0.072933  -2.795601
6
step=226 t=11.300 fs active_state=0 phi=13.45 deg E_0=9.9919eV E_1=13.0010eV E_2=14.8838eV
C  0.032884  -0.031579  0.352552
N  0.112835  -0.008522  0.970166
H  0.466857  0.022475  -1.652173
H  1.400511  -0.045364  1.574210
H  -1.565458  0.071684  1.781311
H  -0.536687  0.073416  -2.806899
6
step=227 t=11.350 fs active_state=0 phi=13.48 deg E_0=9.9014eV E_1=12.9377eV E_2=14.8782eV
C  0.033261  -0.031678  0.355084
N  0.113264  -0.008666  0.967955
H  0.466937  0.022647  -1.655681
H  1.400845  -0.045553  1.566392
H  -1.567953  0.072025  1.777735
H  -0.536237  0.073899  -2.818199
6
step=228 t=11.400 fs active_state=0 phi=13.52 deg E_0=9.8113eV E_1=12.8752eV E_2=14.8743eV
C  0.033643  -0.031776  0.357635
N  0.113693  -0.008810  0.965729
H  0.467027  0.022820  -1.659188
H  1.401093  -0.045741  1.558511
H  -1.570429  0.072365  1.774143
H  -0.535793  0.074383  -2.829500
6
step=229 t=11.450 fs active_state=0 phi=13.55 deg E_0=9.7222eV E_1=12.8137eV E_2=14.8726eV
C  0.034031  -0.031874  0.360203
N  0.114122  -0.008955  0.963488
H  0.467124  0.022993  -1.662693
H  1.401252  -0.045927  1.550567
H  -1.572887  0.072704  1.770535
H  -0.535354  0.074866  -2.840803
6
step=230 t=11.500 fs active_state=0 phi=13.59 deg E_0=9.6343eV E_1=12.7529eV E_2=14.8726eV
C  0.034423  -0.031970  0.362789
N  0.114551  -0.009101  0.961231
H  0.467228  0.023167  -1.666196
H  1.401321  -0.046111  1.542560
H  -1.575326  0.073041  1.766911
H  -0.534920  0.075349  -2.852106
6
step=231 t=11.550 fs active_state=0 phi=13.62 deg E_0=9.5474eV E_1=12.6934eV E_2=14.8738eV
C  0.034821  -0.032066  0.365392
N  0.114980  -0.009247  0.958960
H  0.467340  0.023341  -1.669698
H  1.401296  -0.046293  1.534489
H  -1.577745  0.073377  1.763270
H  -0.534491  0.075832  -2.863409
6
step=232 t=11.600 fs active_state=0 phi=13.66 deg E_0=9.4622eV E_1=12.6345eV E_2=14.8762eV
C  0.035224  -0.032161  0.368014
N  0.115410  -0.009394  0.956673
H  0.467457  0.023515  -1.673198
H  1.401176  -0.046474  1.526354
H  -1.580143  0.073712  1.759612
H  -0.534067  0.076315  -2.874713
6
step=233 t=11.650 fs active_state=0 phi=13.69 deg E_0=9.3782eV E_1=12.5767eV E_2=14.8799eV
C  0.035633  -0.032255  0.370653
N  0.115840  -0.009541  0.954371
H  0.467581  0.023690  -1.676695
H  1.400959  -0.046653  1.518156
H  -1.582521  0.074046  1.755938
H  -0.533646  0.076799  -2.886017
6
step=234 t=11.700 fs active_state=0 phi=13.72 deg E_0=9.2957eV E_1=12.5193eV E_2=14.8838eV
C  0.036046  -0.032348  0.373309
N  0.116271  -0.009690  0.952055
H  0.467710  0.023864  -1.680190
H  1.400643  -0.046829  1.509893
H  -1.584877  0.074378  1.752246
H  -0.533230  0.077282  -2.897320
6
step=235 t=11.750 fs active_state=0 phi=13.75 deg E_0=9.2153eV E_1=12.4634eV E_2=14.8879eV
C  0.036465  -0.032441  0.375984
N  0.116703  -0.009838  0.949726
H  0.467843  0.024040  -1.683683
H  1.400224  -0.047004  1.501567
H  -1.587212  0.074709  1.748537
H  -0.532817  0.077765  -2.908623
6
step=236 t=11.800 fs active_state=0 phi=13.79 deg E_0=9.1365eV E_1=12.4082eV E_2=14.8921eV
C  0.036888  -0.032533  0.378676
N  0.117137  -0.009988  0.947384
H  0.467982  0.024215  -1.687172
H  1.399702  -0.047176  1.493175
H  -1.589524  0.075038  1.744812
H  -0.532408  0.078248  -2.919926
6
step=237 t=11.850 fs active_state=0 phi=13.82 deg E_0=9.0598eV E_1=12.3538eV E_2=14.8960eV
C  0.037316  -0.032625  0.381385
N  0.117572  -0.010137  0.945032
H  0.468124  0.024391  -1.690659
H  1.399073  -0.047347  1.484719
H  -1.591814  0.075366  1.741069
H  -0.532003  0.078731  -2.931227
6
step=238 t=11.900 fs active_state=0 phi=13.85 deg E_0=8.9854eV E_1=12.3005eV E_2=14.8997eV
C  0.037749  -0.032716  0.384113
N  0.118009  -0.010288  0.942669
H  0.468270  0.024566  -1.694142
H  1.398336  -0.047515  1.476197
H  -1.594082  0.075693  1.737309
H  -0.531601  0.079214  -2.942527
6
step=239 t=11.950 fs active_state=0 phi=13.88 deg E_0=8.9128eV E_1=12.2478eV E_2=14.9021eV
C  0.038187  -0.032806  0.386857
N  0.118448  -0.010439  0.940297
H  0.468420  0.024742  -1.697621
H  1.397488  -0.047681  1.467610
H  -1.596327  0.076018  1.733532
H  -0.531201  0.079697  -2.953826
6
step=240 t=12.000 fs active_state=0 phi=13.92 deg E_0=8.8425eV E_1=12.1960eV E_2=14.9038eV
C  0.038629  -0.032896  0.389619
N  0.118889  -0.010590  0.937917
H  0.468572  0.024919  -1.701097
H  1.396527  -0.047844  1.458957
H  -1.598549  0.076341  1.729738
H  -0.530805  0.080180  -2.965123
6
step=241 t=12.050 fs active_state=0 phi=13.95 deg E_0=8.7742eV E_1=12.1450eV E_2=14.9043eV
C  0.039075  -0.032985  0.392397
N  0.119333  -0.010741  0.935530
H  0.468728  0.025095  -1.704570
H  1.395451  -0.048005  1.450239
H  -1.600747  0.076664  1.725927
H  -0.530412  0.080663  -2.976418
6
step=242 t=12.100 fs active_state=0 phi=13.98 deg E_0=8.7083eV E_1=12.0947eV E_2=14.9036eV
C  0.039526  -0.033074  0.395189
N  0.119779  -0.010893  0.933137
H  0.468886  0.025272  -1.708038
H  1.394258  -0.048163  1.441455
H  -1.602923  0.076984  1.722100
H  -0.530021  0.081145  -2.987712
6
step=243 t=12.150 fs active_state=0 phi=14.01 deg E_0=8.6445eV E_1=12.0454eV E_2=14.9014eV
C  0.039981  -0.033163  0.397994
N  0.120229  -0.011045  0.930740
H  0.469047  0.025448  -1.711503
H  1.392947  -0.048319  1.432605
H  -1.605076  0.077304  1.718255
H  -0.529633  0.081628  -2.999004
6
step=244 t=12.200 fs active_state=0 phi=14.04 deg E_0=8.5830eV E_1=11.9963eV E_2=14.8975eV
C  0.040440  -0.033251  0.400812
N  0.120682  -0.011198  0.928338
H  0.469210  0.025625  -1.714963
H  1.391514  -0.048473  1.423689
H  -1.607205  0.077621  1.714394
H  -0.529248  0.082111  -3.010293
6
step=245 t=12.250 fs active_state=0 phi=14.07 deg E_0=8.5237eV E_1=11.9482eV E_2=14.8918eV
C  0.040902  -0.033339  0.403639
N  0.121139  -0.011351  0.925934
H  0.469376  0.025802  -1.718419
H  1.389959  -0.048623  1.414708
H  -1.609312  0.077937  1.710517
H  -0.528865  0.082593  -3.021581
6
step=246 t=12.300 fs active_state=0 phi=14.10 deg E_0=8.4668eV E_1=11.9006eV E_2=14.8845eV
C  0.041368  -0.033427  0.406477
N  0.121599  -0.011504  0.923529
H  0.469543  0.025979  -1.721871
H  1.388280  -0.048771  1.405661
H  -1.611396  0.078252  1.706624
H  -0.528485  0.083075  -3.032866
6
step=247 t=12.350 fs active_state=0 phi=14.13 deg E_0=8.4119eV E_1=11.8533eV E_2=14.8752eV
C  0.041838  -0.033514  0.409322
N  0.122064  -0.011657  0.921122
H  0.469713  0.026156  -1.725319
H  1.386477  -0.048916  1.396549
H  -1.613457  0.078565  1.702715
H  -0.528108  0.083558  -3.044149
6
step=248 t=12.400 fs active_state=0 phi=14.16 deg E_0=8.3594eV E_1=11.8064eV E_2=14.8643eV
C  0.042311  -0.033602  0.412174
N  0.122532  -0.011810  0.918716
H  0.469885  0.026333  -1.728762
H  1.384547  -0.049059  1.387372
H  -1.615496  0.078877  1.698790
H  -0.527732  0.084040  -3.055430
6
step=249 t=12.450 fs active_state=0 phi=14.18 deg E_0=8.3093eV E_1=11.7600eV E_2=14.8508eV
C  0.042787  -0.033689  0.415032
N  0.123006  -0.011964  0.916311
H  0.470059  0.026510  -1.732201
H  1.382492  -0.049199  1.378131
H  -1.617512  0.079187  1.694850
H  -0.527360  0.084522  -3.066709
